  C36
1.00000
14.189454146616347       0.0       0.0       
-7.09472707330817       12.2884277568042       0.0       
0.0       0.0       20.2       
C  
144  
Direct
0.0990724141443954       3.91361212871947e-06       0.6279056558114686
0.6536839028410247       -0.05693255537662483       0.5602624137109602
0.05693255537662483       0.7106164582176496       0.5602624137109602
0.2893835417823504       0.34631609715897527       0.5602624137109602
0.0990728242457718       0.09906205400317017       0.627906893510856
0.6251521484812091       -0.11412033213963134       0.5000005463070809
0.11412033213963134       0.7392724806208405       0.5000005463070809
0.2607275193791595       0.37484785151879085       0.5000005463070809
0.16202098862203343       0.16201214781861276       0.5695584201235676
0.5057635568335767       -0.18693211081121286       0.5000003827996427
0.18693211081121286       0.6926956676447895       0.5000003827996427
0.3073043323552105       0.4942364431664234       0.5000003827996427
0.16202050001151175       4.375459028563065e-06       0.5695565459497387
0.5524268792926219       -0.09340265528780103       0.5985576727966827
0.09340265528780103       0.645829534580423       0.5985576727966827
0.35417046541957703       0.4475731207073781       0.5985576727966827
0.2008056260844919       0.10040138082135128       0.5353308913128655
0.46357765968905834       -0.1738301535404468       0.5610765699250699
0.1738301535404468       0.6374078132295051       0.5610765699250699
0.3625921867704948       0.5364223403109416       0.5610765699250699
0.10040896708778008       -0.10039282528358552       0.535334536366219
0.550335791578485       5.8632167085315294e-05       0.622156120998286
-5.8632167085315294e-05       0.5502771594113998       0.622156120998286
0.4497228405886003       0.449664208421515       0.622156120998286
1.7468595942627016e-05       -0.09904865729648825       0.627906893510856
0.7107458123116536       0.05744477895409075       0.560263539252603
-0.05744477895409075       0.6533010333575628       0.560263539252603
0.34669896664243716       0.28925418768834643       0.560263539252603
1.6568861323984986e-05       -0.1620062888125292       0.5695635031549954
0.64576146912003       0.09366711560262662       0.5985659721532804
-0.09366711560262662       0.5520943535174033       0.5985659721532804
0.4479056464825966       0.35423853087997004       0.5985659721532804
-0.09903946520050853       -0.09904985765729817       0.6279043896023503
0.7392715143844987       0.11463961899463285       0.5000054570807713
-0.11463961899463285       0.6246318953898659       0.5000054570807713
0.37536810461013415       0.2607284856155013       0.5000054570807713
1.8173490656430426e-05       0.09906020106324588       0.6279091598272648
0.6536841769369973       -0.05692642338033817       0.43974424974746373
0.05692642338033817       0.7106106003173356       0.43974424974746373
0.28938939968266447       0.3463158230630027       0.43974424974746373
-0.0990391584344463       4.87823809355415e-06       0.6279056558114773
0.7107408110571594       0.05745386741613215       0.4397455979424082
-0.05745386741613215       0.6532869436410271       0.4397455979424082
0.34671305635897287       0.2892591889428407       0.4397455979424082
0.1004101511990904       0.20080002005726671       0.5353381641503563
0.4635829252583981       -0.17382455975537592       0.43892587840819597
0.17382455975537592       0.637407485013774       0.43892587840819597
0.362592514986226       0.5364170747416019       0.43892587840819597
1.777358817503543e-05       0.16202009551143295       0.5695674328876461
0.5524318947750052       -0.09339818425986796       0.401444936264257
0.09339818425986796       0.6458300790348731       0.401444936264257
0.3541699209651269       0.44756810522499485       0.401444936264257
0.10039317308799381       0.20078438507308466       0.4646652197730914
0.36290756608626584       -0.17395646312214896       0.4389282637495623
0.17395646312214896       0.5368640292084148       0.4389282637495623
0.4631359707915852       0.6370924339137342       0.4389282637495623
0.20078780406025107       0.10039419077227495       0.46465791645530163
0.3629000676062364       -0.17396644507803843       0.5610733044097749
0.17396644507803843       0.5368665126842748       0.5610733044097749
0.46313348731572523       0.6370999323937636       0.5610733044097749
0.16200012939268416       0.1620045965117745       0.4304343632726789
0.30756758426900543       -0.18721243389838227       0.49999859077499886
0.18721243389838227       0.4947800181673877       0.49999859077499886
0.5052199818326123       0.6924324157309946       0.49999859077499886
0.10039198837756841       -0.10039064788775723       0.46466160447251426
0.44965531956118737       -8.355414395842868e-05       0.6221476697957875
8.355414395842868e-05       0.44973887370514576       0.6221476697957875
0.5502611262948542       0.5503446804388127       0.6221476697957875
0.16199948539777523       -2.383858015041688e-06       0.43043242959362354
0.35423063857472326       -0.09368334601093917       0.5985553044427544
0.09368334601093917       0.44791398458566245       0.5985553044427544
0.5520860154143375       0.6457693614252767       0.5985553044427544
-7.3336213328145385e-06       -0.16200950248962737       0.43044148569925694
0.44756802902733445       0.09338604982936934       0.5985596899477635
-0.09338604982936934       0.3541819791979651       0.5985596899477635
0.6458180208020349       0.5524319709726656       0.5985596899477635
-0.10038182308917142       -0.20079239093188708       0.5353357403723942
0.6370861149190316       0.17395452365116998       0.5610882310655195
-0.17395452365116998       0.4631315912678616       0.5610882310655195
0.5368684087321385       0.36291388508096845       0.5610882310655195
-0.16199883622867334       -0.1620144449752272       0.5695639051218553
0.6924256890912607       0.1872173591281132       0.5000129072880148
-0.1872173591281132       0.5052083299631475       0.5000129072880148
0.49479167003685254       0.3075743109087393       0.5000129072880148
-0.10039972341804143       -0.20079911821035226       0.46466676078037705
0.5364141039743976       0.17381801868335905       0.561084636207589
-0.17381801868335905       0.36259608529103854       0.561084636207589
0.6374039147089614       0.4635858960256024       0.561084636207589
-0.16199815747337917       1.3485429912797723e-05       0.5695657912534309
0.6457565224407832       0.09367615634334658       0.4014434697934814
-0.09367615634334658       0.5520803660974366       0.4014434697934814
0.4479196339025634       0.3542434775592168       0.4014434697934814
-0.10038058254411004       0.10041001599004301       0.5353393141362326
0.5503304012006058       6.577900526677078e-05       0.3778522060107177
-6.577900526677078e-05       0.5502646221953391       0.3778522060107177
0.4497353778046609       0.44966959879939417       0.3778522060107177
-0.20078354802329088       -0.10039204354921175       0.5353506384868019
0.6371035519183667       0.1739627562591787       0.4389326979893166
-0.1739627562591787       0.4631407956591879       0.4389326979893166
0.536859204340812       0.36289644808163335       0.4389326979893166
-5.9050372286566065e-06       0.16200632588854183       0.4304453081921124
0.35424127803868527       -0.09367328543032864       0.4014452119615418
0.09367328543032864       0.4479145634690139       0.4014452119615418
0.5520854365309861       0.6457587219613148       0.4014452119615418
-0.10039838551066614       0.10040242807575009       0.4646703529109896
0.4496586362850366       -7.028528290427289e-05       0.3778491939485374
7.028528290427289e-05       0.44972892156794086       0.3778491939485374
0.5502710784320591       0.5503413637149634       0.3778491939485374
0.09903333092748641       0.09904559754402888       0.3720920647016124
0.2607197039515925       -0.11463363535761782       0.4999981230902425
0.11463363535761782       0.37535333930921033       0.4999981230902425
0.6246466606907897       0.7392802960484075       0.4999981230902425
0.09903290808239222       -6.847444170199178e-06       0.37209084017273514
0.28924984020146804       -0.05744913923801825       0.5602565179372995
0.05744913923801825       0.3466989794394863       0.5602565179372995
0.6533010205605136       0.710750159798532       0.5602565179372995
-2.521438116266154e-05       -0.09906378811679842       0.3720936037271352
0.34631609715897527       0.05693255537662486       0.5602583691630459
-0.05693255537662486       0.28938354178235043       0.5602583691630459
0.7106164582176495       0.6536839028410247       0.5602583691630459
-2.4404917983184197e-05       0.09904519225052252       0.3720959746723336
0.2892545455843343       -0.05743877754764135       0.4397390690413465
0.05743877754764135       0.34669332313197565       0.4397390690413465
0.6533066768680243       0.7107454544156657       0.4397390690413465
-0.1620337975696563       -0.16202324252476222       0.4304524759378887
0.49425212708885813       0.18694592481662742       0.5000032941766875
-0.18694592481662742       0.3073062022722307       0.5000032941766875
0.6926937977277693       0.5057478729111419       0.5000032941766875
-0.2008079119957862       -0.10040255783692556       0.46468122562019776
0.5364338761061216       0.1738321686781955       0.4389274749855837
-0.1738321686781955       0.3626017074279261       0.4389274749855837
0.6373982925720739       0.4635661238938784       0.4389274749855837
-0.162032990566485       -5.856994793056115e-06       0.43045441253601846
0.4475860328194666       0.09341073578338197       0.40144034968140996
-0.09341073578338197       0.3541752970360846       0.40144034968140996
0.6458247029639155       0.5524139671805335       0.40144034968140996
-0.09908174140747515       -0.09906563831692332       0.3721020595669864
0.3748574831537236       0.11412755908929238       0.500000929273501
-0.11412755908929238       0.2607299240644312       0.500000929273501
0.7392700759355688       0.6251425168462764       0.500000929273501
-0.09908129583792688       -9.191933911992617e-06       0.3721033266418631
0.3463262483828226       0.05694073988278308       0.4397401139959137
-0.05694073988278308       0.2893855085000395       0.4397401139959137
0.7106144914999605       0.6536737516171773       0.4397401139959137
