  C36
1.00000
14.032770767198796       0.0       0.0       
-7.016385383599395       12.152735969877805       0.0       
0.0       0.0       20.2       
C  
144  
Direct
0.11566676673066606       0.05783873055679452       0.6279073559062431
0.6553998656867585       -0.057568237760615426       0.5602617426619325
0.057568237760615426       0.7129681034473738       0.5602617426619325
0.2870318965526262       0.34460013431324155       0.5602617426619325
0.057835351157521135       0.11566670517173568       0.6279074604063548
0.6265495390529442       -0.1153945465906852       0.49999987525805334
0.1153945465906852       0.7419440856436295       0.49999987525805334
0.2580559143563706       0.3734504609470558       0.49999987525805334
0.09458513799577524       0.189167417112691       0.5695597735559208
0.5058279100234869       -0.1890193076541927       0.49999971175061503
0.1890193076541927       0.6948472176776797       0.49999971175061503
0.30515278232232035       0.494172089976513       0.49999971175061503
0.18916757042905966       0.09459093122731303       0.5695597527130883
0.5530122533970065       -0.09444554581311862       0.5985570017476551
0.09444554581311862       0.6474577992101251       0.5985570017476551
0.3525422007898748       0.4469877466029934       0.5985570017476551
0.17584121809824355       0.1758447178063233       0.5353338778787544
0.4631709848091726       -0.17577106003377121       0.5610758988760423
0.17577106003377121       0.6389420448429438       0.5610758988760423
0.3610579551570562       0.5368290151908274       0.5610758988760423
0.17584595174686854       1.2594347839400939e-05       0.5353374170271233
0.5508978175718555       5.9286826541662676e-05       0.6221554499492583
-5.9286826541662676e-05       0.5508385307453139       0.6221554499492583
0.4491614692546862       0.44910218242814454       0.6221554499492583
0.057839510200002324       -0.05781578250453304       0.627907355906243
0.7130989018489152       0.05808618058786218       0.5602628682035754
-0.05808618058786218       0.655012721261053       0.5602628682035754
0.3449872787389469       0.2869010981510848       0.5602628682035754
0.09459754275846938       -0.09456771814238257       0.5695646857878504
0.6473889737625185       0.09471295896858675       0.5985653011042529
-0.09471295896858675       0.5526760147939318       0.5985653011042529
0.44732398520606825       0.35261102623748153       0.5985653011042529
-0.0578180095644527       -0.11564767307245091       0.6279024811191194
0.7419431086187429       0.11591963156073316       0.5000047860317436
-0.11591963156073316       0.6260234770580098       0.5000047860317436
0.3739765229419903       0.25805689138125715       0.5000047860317436
-0.057819122225907134       0.05783576638285783       0.6279073559062521
0.6554001428431588       -0.057562037297315606       0.43974357869843606
0.057562037297315606       0.7129621801404745       0.43974357869843606
0.2870378198595255       0.3445998571568411       0.43974357869843606
-0.11564755818806828       -0.0578217462491671       0.6279026141654442
0.7130938447527437       0.0580953705274357       0.43974492689338057
-0.0580953705274357       0.6549984742253081       0.43974492689338057
0.34500152577469195       0.28690615524725627       0.43974492689338057
5.623997562496587e-06       0.17584234960758627       0.535337599242206
0.46317630917140595       -0.1757654037911028       0.4389252073591684
0.1757654037911028       0.6389417129625088       0.4389252073591684
0.3610582870374912       0.536823690828594       0.4389252073591684
-0.09457338483708734       0.09459171434279869       0.5695649087399499
0.553017324879929       -0.09444102486377104       0.40144426521522936
0.09444102486377104       0.6474583497437001       0.40144426521522936
0.35254165025629997       0.446982675120071       0.40144426521522936
-1.0689458469125386e-06       0.17582539974889339       0.46466465467848933
0.3613768558513071       -0.1758987799294051       0.4389275927005346
0.1758987799294051       0.5372756357807122       0.4389275927005346
0.4627243642192878       0.6386231441486929       0.4389275927005346
0.17582860950668058       0.17583220520501344       0.4646609027179313
0.36136927364674376       -0.17590887333916266       0.5610726333607472
0.17590887333916266       0.5372781469859064       0.5610726333607472
0.46272185301409363       0.6386307263532562       0.5610726333607472
0.09457307086223449       0.18915494433669988       0.43043571637297207
0.3054189735843149       -0.1893027606983289       0.4999979197259713
0.1893027606983289       0.4947217342826439       0.4999979197259713
0.5052782657173561       0.6945810264156851       0.4999979197259713
0.1758288589207438       6.042573609080151e-06       0.4646644847431818
0.4490931943189445       -8.44870705954367e-05       0.6221469987467599
8.44870705954367e-05       0.44917768138953995       0.6221469987467599
0.55082231861046       0.5509068056810555       0.6221469987467599
0.18915485949545668       0.09457883008132441       0.4304356360121339
0.352603045810432       -0.09472937059807549       0.5985546333937268
0.09472937059807549       0.4473324164085075       0.5985546333937268
0.5526675835914925       0.647396954189568       0.5985546333937268
0.09457938984203462       -0.09457943548094032       0.43044266787758984
0.44698259807162305       0.09442875494587587       0.598559018898736
-0.09442875494587587       0.35255384312574717       0.598559018898736
0.6474461568742529       0.553017401928377       0.598559018898736
1.8995304291040892e-05       -0.17582344693350507       0.535334963732187
0.63861675459904       0.17589681880319694       0.561087560016492
-0.17589681880319694       0.4627199357958431       0.561087560016492
0.5372800642041569       0.36138324540096       0.561087560016492
-0.09456581089996366       -0.18915993846757484       0.569561210067127
0.6945742246694263       0.18930774092087996       0.5000122362389873
-0.18930774092087996       0.5052664837485463       0.5000122362389873
0.4947335162514537       0.3054257753305737       0.5000122362389873
6.024884819093777e-06       -0.17583573521433304       0.46466598382974017
0.5368206868911874       0.1757587896845238       0.5610839651585614
-0.1757587896845238       0.3610618972066636       0.5610839651585614
0.6389381027933364       0.4631793131088126       0.5610839651585614
-0.18915978994566388       -0.09457157379551845       0.5695612426416522
0.6473839718509563       0.0947221006540048       0.40144279874445377
-0.0947221006540048       0.5526618711969515       0.40144279874445377
0.44733812880304846       0.3526160281490437       0.40144279874445377
-0.17582684877042365       1.1923093545782968e-05       0.5353350918189386
0.5508923670075287       6.65134629879796e-05       0.37785153496169
-6.65134629879796e-05       0.5508258535445407       0.37785153496169
0.4491741464554593       0.4491076329924713       0.37785153496169
-0.17582489399008439       -0.17582846707211028       0.5353463102034176
0.6386343862917844       0.17590514333267046       0.438932026940289
-0.17590514333267046       0.4627292429591139       0.438932026940289
0.5372707570408861       0.3613656137082156       0.438932026940289
-0.0945851136253506       0.094573965394593       0.43044278371601047
0.35261380406969084       -0.09471919768570988       0.40144454091251425
0.09471919768570988       0.4473330017554007       0.40144454091251425
0.5526669982445993       0.6473861959303091       0.40144454091251425
-0.1758392030569243       -8.107642669978866e-07       0.46466613029544174
0.44909654807578675       -7.107005562175373e-05       0.37784852289950976
7.107005562175373e-05       0.4491676181314085       0.37784852289950976
0.5508323818685915       0.5509034519242133       0.37784852289950976
0.057813334825439634       0.11564160506914846       0.37209263098870615
0.25804801166538116       -0.11591358111321548       0.4999974520412148
0.11591358111321548       0.37396159277859664       0.4999974520412148
0.6260384072214034       0.7419519883346188       0.4999974520412148
0.11564141044144796       0.057816947851589987       0.3720925395936452
0.28689670212219376       -0.05809058955668821       0.5602558468882719
0.05809058955668821       0.3449872916788819       0.5602558468882719
0.6550127083211181       0.7131032978778062       0.5602558468882719
0.05781299562482144       -0.057841970956120606       0.3720940654226079
0.34460013431324166       0.057568237760615454       0.5602576981140184
-0.057568237760615454       0.2870318965526262       0.5602576981140184
0.7129681034473738       0.6553998656867583       0.5602576981140184
-0.05784558594375194       0.057809710202160754       0.3720941700525135
0.28690146004317246       -0.05808011217250489       0.43973839799231884
0.05808011217250489       0.3449815722156774       0.43973839799231884
0.6550184277843226       0.7130985399568275       0.43973839799231884
-0.09459361670241886       -0.18918137220531642       0.4304497802278209
0.4941879490183173       0.18903327590035468       0.5000026231276599
-0.18903327590035468       0.3051546731179626       0.5000026231276599
0.6948453268820374       0.5058120509816827       0.5000026231276599
-0.1758432003695837       -0.17584673969356823       0.4646768969150017
0.5368406797893209       0.175773097671609       0.4389268039365561
-0.175773097671609       0.36106758211771184       0.4389268039365561
0.6389324178822882       0.4631593202106791       0.4389268039365561
-0.18918128972497936       -0.09459908850325538       0.4304498633926015
0.4470008028857087       0.09445371653174787       0.40143967863238234
-0.09445371653174787       0.3525470863539608       0.40143967863238234
0.6474529136460392       0.5529991971142912       0.40143967863238234
-0.05784367043053707       -0.11567400372888494       0.37210015040100475
0.373460200124336       0.11540185423309857       0.5000002582244735
-0.11540185423309857       0.25805834589123744       0.5000002582244735
0.7419416541087626       0.626539799875664       0.5000002582244735
-0.1156740556010941       -0.057846997328589556       0.3721002842968338
0.34461039888092415       0.05757651365115564       0.43973944294688605
-0.05757651365115564       0.2870338852297685       0.43973944294688605
0.7129661147702315       0.6553896011190758       0.43973944294688605
