K2 V8 O20
1.0
  11.6790688854011240    0.0000000000000000   -0.4568303515040915
  -0.0000000000000002    3.6680000000000001    0.0000000000000002
   0.0000000000000000    0.0000000000000000    9.5050000000000008
K V O
2 8 20
direct
   0.5935000000000000    0.0000000000000000    0.4763000000000000 K+
   0.0935000000000001    0.5000000000000000    0.4763000000000000 K+
   0.0609000000000000    0.0000000000000000    0.8457000000000000 V4.76+
   0.9391000000000000    0.0000000000000000    0.1543000000000000 V4.76+
   0.5609000000000000    0.5000000000000000    0.8457000000000000 V4.76+
   0.4391000000000000    0.5000000000000000    0.1543000000000000 V4.76+
   0.7630000000000000    0.0000000000000000    0.8448000000000000 V4.76+
   0.2370000000000000    0.0000000000000000    0.1552000000000000 V4.76+
   0.2630000000000000    0.5000000000000000    0.8448000000000000 V4.76+
   0.7370000000000000    0.5000000000000000    0.1552000000000000 V4.76+
   0.5964000000000000    0.0000000000000000    0.8756000000000000 O2-
   0.4036000000000000    0.0000000000000000    0.1244000000000000 O2-
   0.0964000000000000    0.5000000000000000    0.8756000000000000 O2-
   0.9036000000000000    0.5000000000000000    0.1244000000000000 O2-
   0.9170000000000000    0.0000000000000000    0.9047000000000001 O2-
   0.0830000000000000    0.0000000000000000    0.0953000000000000 O2-
   0.4170000000000000    0.5000000000000000    0.9047000000000001 O2-
   0.5830000000000000    0.5000000000000000    0.0953000000000000 O2-
   0.2367000000000000    0.0000000000000000    0.8904000000000000 O2-
   0.7633000000000000    0.0000000000000000    0.1096000000000000 O2-
   0.7367000000000000    0.5000000000000000    0.8904000000000000 O2-
   0.2633000000000001    0.5000000000000000    0.1096000000000000 O2-
   0.0427000000000000    0.0000000000000000    0.6773000000000000 O2-
   0.9573000000000000    0.0000000000000000    0.3227000000000000 O2-
   0.5427000000000000    0.5000000000000000    0.6773000000000000 O2-
   0.4573000000000000    0.5000000000000000    0.3227000000000000 O2-
   0.7723000000000000    0.0000000000000000    0.6773000000000000 O2-
   0.2277000000000000    0.0000000000000000    0.3227000000000000 O2-
   0.2723000000000000    0.5000000000000000    0.6773000000000000 O2-
   0.7277000000000000    0.5000000000000000    0.3227000000000000 O2-
