K4 V16 O24                              
   1.00000000000000     
     3.9582377055386000   -0.0002208256347941    0.0003931146703515
     0.0005529064662103   10.9161132439375610   -0.0715647729897402
    -0.0020573606894035   -0.1014056933307838   16.0766553679590487
   K    V    O 
     4    16    24
Direct
 -0.0001522948916563  0.5995304149577070  0.2498992218312438
 -0.0000107749191190  0.4052824345365408  0.7533178727045754
  0.5000093857113266  0.0995140429724403  0.2532306281951223
  0.4999540379427116  0.8916507040237400  0.7503557307594071
  0.0001518001667283  0.9537319249796836  0.4090236861135797
  0.0002457174768547  0.0471843151759112  0.5929786499312557
  0.9999215913933603  0.9569207379234307  0.1006213444789459
 -0.0003715754318475  0.0417905675806033  0.8948299760088716
  0.5000793088547651  0.4532618642502655  0.3981189581085319
  0.5001635333489205  0.5495419374846785  0.6035352412554617
  0.4997633205048729  0.4570857650058947  0.0891408131384896
  0.4999523052455586  0.5429775960215620  0.9085874946915301
  0.0001198230363141  0.2488333768035861  0.4290368444793456
  0.0000707337718593  0.7506891126284077  0.5715028255636632
 -0.0001871678669992  0.2480963909759596  0.0650616770235333
  0.0000877724323797  0.7486906394690521  0.9327058512285766
  0.5000661460206138  0.7480022740400475  0.4324460696350195
  0.5001883518156539  0.2552591361211254  0.5685255009821335
  0.4999410961996306  0.7529642263818560  0.0718844195769260
  0.4998644140461139  0.2469230771164667  0.9253693489213339
  0.0002074984743098  0.2277131924102984  0.5512565692858949
  0.0001156627125558  0.7764957629506510  0.4516736234768389
 -0.0001381396864056  0.2212382692481617  0.9465944467648745
 -0.0000562790050772  0.7794963519997510  0.0538681556774558
  0.5000983220992871  0.7232212721743415  0.5537492470490136
  0.5001386630890102  0.2748248805517056  0.4499702528976536
  0.5000686343942898  0.7212103224025627  0.9522547936484547
  0.4998943042272164  0.2751283205309493  0.0473009992674212
  0.0000931442396233  0.4125794288805765  0.3895879079473978
  0.0001430791061344  0.5866824469788766  0.6188824317219187
 -0.0003123162794712  0.4147049822897229  0.0995712915750938
  0.0000119838815704  0.5788210738439383  0.8954703278610366
  0.5001163351418360  0.9167979952180854  0.3961965513564691
  0.5003006514938138  0.0903367375840479  0.6035082056146017
  0.4999430047647923  0.9207361362191726  0.1163649950596441
  0.4997046867443388  0.0821086695160362  0.8845902697615918
  0.0001795125119534  0.1092779074478396  0.3602014633596528
  0.0000736587721402  0.8911827610840451  0.6380618022777621
 -0.0002216372997590  0.1310704211946518  0.1381748990357620
 -0.0001263674892947  0.8774670154451302  0.8577371898446595
  0.5000153046782914  0.6149416889350836  0.3583679576717348
  0.5001474085235222  0.3767508195165254  0.6403535647913319
  0.4998154250098895  0.6132166448906282  0.1370177010956459
  0.4999299350373913  0.3860663602382234  0.8590731983305360
 
  0.00000000E+00  0.00000000E+00  0.00000000E+00
  0.00000000E+00  0.00000000E+00  0.00000000E+00
  0.00000000E+00  0.00000000E+00  0.00000000E+00
  0.00000000E+00  0.00000000E+00  0.00000000E+00
  0.00000000E+00  0.00000000E+00  0.00000000E+00
  0.00000000E+00  0.00000000E+00  0.00000000E+00
  0.00000000E+00  0.00000000E+00  0.00000000E+00
  0.00000000E+00  0.00000000E+00  0.00000000E+00
  0.00000000E+00  0.00000000E+00  0.00000000E+00
  0.00000000E+00  0.00000000E+00  0.00000000E+00
  0.00000000E+00  0.00000000E+00  0.00000000E+00
  0.00000000E+00  0.00000000E+00  0.00000000E+00
  0.00000000E+00  0.00000000E+00  0.00000000E+00
  0.00000000E+00  0.00000000E+00  0.00000000E+00
  0.00000000E+00  0.00000000E+00  0.00000000E+00
  0.00000000E+00  0.00000000E+00  0.00000000E+00
  0.00000000E+00  0.00000000E+00  0.00000000E+00
  0.00000000E+00  0.00000000E+00  0.00000000E+00
  0.00000000E+00  0.00000000E+00  0.00000000E+00
  0.00000000E+00  0.00000000E+00  0.00000000E+00
  0.00000000E+00  0.00000000E+00  0.00000000E+00
  0.00000000E+00  0.00000000E+00  0.00000000E+00
  0.00000000E+00  0.00000000E+00  0.00000000E+00
  0.00000000E+00  0.00000000E+00  0.00000000E+00
  0.00000000E+00  0.00000000E+00  0.00000000E+00
  0.00000000E+00  0.00000000E+00  0.00000000E+00
  0.00000000E+00  0.00000000E+00  0.00000000E+00
  0.00000000E+00  0.00000000E+00  0.00000000E+00
  0.00000000E+00  0.00000000E+00  0.00000000E+00
  0.00000000E+00  0.00000000E+00  0.00000000E+00
  0.00000000E+00  0.00000000E+00  0.00000000E+00
  0.00000000E+00  0.00000000E+00  0.00000000E+00
  0.00000000E+00  0.00000000E+00  0.00000000E+00
  0.00000000E+00  0.00000000E+00  0.00000000E+00
  0.00000000E+00  0.00000000E+00  0.00000000E+00
  0.00000000E+00  0.00000000E+00  0.00000000E+00
  0.00000000E+00  0.00000000E+00  0.00000000E+00
  0.00000000E+00  0.00000000E+00  0.00000000E+00
  0.00000000E+00  0.00000000E+00  0.00000000E+00
  0.00000000E+00  0.00000000E+00  0.00000000E+00
  0.00000000E+00  0.00000000E+00  0.00000000E+00
  0.00000000E+00  0.00000000E+00  0.00000000E+00
  0.00000000E+00  0.00000000E+00  0.00000000E+00
  0.00000000E+00  0.00000000E+00  0.00000000E+00
