K6 V24 O60
1.0
  11.7192982942474693    0.0000000000000000   -0.3614940411066821
  -0.0000000000000007   11.1001945800000001    0.0000000000000007
   0.0000000000000000    0.0000000000000000    9.3907360900000008
K V O
6 24 60
direct
   0.4127962900000000    0.0000000000000000    0.5263813400000000 K
   0.4127962900000000    0.3333333333333333    0.5263813400000000 K
   0.4127962900000000    0.6666666666666666    0.5263813400000000 K
   0.0872037100000000    0.1666666666666667    0.4736186600000000 K
   0.0872037100000000    0.5000000000000000    0.4736186600000000 K
   0.0872037100000000    0.8333333333333333    0.4736186600000001 K
   0.0626604100000000    0.0000000000000000    0.8506136700000000 V
   0.0626604100000000    0.3333333333333333    0.8506136700000000 V
   0.0626604100000000    0.6666666666666666    0.8506136700000000 V
   0.9369753700000000    0.0000000000000000    0.1553170800000000 V
   0.9369753700000000    0.3333333333333333    0.1553170800000000 V
   0.9369753700000000    0.6666666666666666    0.1553170800000000 V
   0.5630246300000000    0.1666666666666667    0.8446829200000000 V
   0.5630246300000000    0.5000000000000000    0.8446829199999999 V
   0.5630246299999999    0.8333333333333333    0.8446829200000000 V
   0.4373395899999999    0.1666666666666667    0.1493863300000000 V
   0.4373395900000000    0.5000000000000000    0.1493863300000000 V
   0.4373395899999999    0.8333333333333333    0.1493863300000000 V
   0.7671916900000000    0.0000000000000000    0.8368063800000000 V
   0.7671916900000000    0.3333333333333333    0.8368063800000000 V
   0.7671916900000000    0.6666666666666666    0.8368063800000000 V
   0.2369771600000000    0.0000000000000000    0.1518712800000000 V
   0.2369771600000000    0.3333333333333333    0.1518712800000000 V
   0.2369771600000000    0.6666666666666666    0.1518712800000000 V
   0.2630228400000000    0.1666666666666667    0.8481287199999999 V
   0.2630228400000000    0.5000000000000000    0.8481287199999999 V
   0.2630228400000000    0.8333333333333333    0.8481287199999999 V
   0.7328083100000000    0.1666666666666667    0.1631936200000000 V
   0.7328083100000000    0.5000000000000000    0.1631936200000000 V
   0.7328083100000000    0.8333333333333333    0.1631936200000000 V
   0.6033523400000000    0.0000000000000000    0.8683697200000000 O
   0.6033523400000000    0.3333333333333333    0.8683697200000000 O
   0.6033523399999999    0.6666666666666666    0.8683697200000001 O
   0.4067956300000000    0.0000000000000000    0.1257879500000000 O
   0.4067956300000000    0.3333333333333333    0.1257879500000000 O
   0.4067956300000000    0.6666666666666666    0.1257879500000000 O
   0.0932043700000000    0.1666666666666667    0.8742120500000000 O
   0.0932043700000000    0.5000000000000000    0.8742120499999999 O
   0.0932043700000000    0.8333333333333333    0.8742120499999999 O
   0.8966476600000001    0.1666666666666667    0.1316302800000000 O
   0.8966476600000001    0.5000000000000000    0.1316302800000000 O
   0.8966476600000001    0.8333333333333333    0.1316302800000000 O
   0.9147201800000000    0.0000000000000000    0.9068167300000000 O
   0.9147201800000000    0.3333333333333333    0.9068167299999998 O
   0.9147201800000000    0.6666666666666666    0.9068167299999998 O
   0.0765485400000000    0.0000000000000000    0.0939917700000000 O
   0.0765485400000000    0.3333333333333333    0.0939917700000000 O
   0.0765485400000000    0.6666666666666666    0.0939917700000000 O
   0.4234514600000000    0.1666666666666667    0.9060082299999999 O
   0.4234514600000001    0.5000000000000000    0.9060082299999999 O
   0.4234514599999999    0.8333333333333333    0.9060082299999999 O
   0.5852798200000000    0.1666666666666667    0.0931832700000000 O
   0.5852798200000000    0.5000000000000000    0.0931832700000000 O
   0.5852798199999999    0.8333333333333333    0.0931832700000000 O
   0.2298988600000000    0.0000000000000000    0.8968033500000000 O
   0.2298988600000000    0.3333333333333333    0.8968033500000000 O
   0.2298988600000000    0.6666666666666666    0.8968033499999999 O
   0.7617242800000001    0.0000000000000000    0.1210706500000000 O
   0.7617242800000001    0.3333333333333333    0.1210706500000000 O
   0.7617242800000001    0.6666666666666666    0.1210706500000000 O
   0.7382757199999999    0.1666666666666667    0.8789293500000001 O
   0.7382757199999999    0.5000000000000000    0.8789293499999999 O
   0.7382757199999999    0.8333333333333333    0.8789293500000001 O
   0.2701011400000000    0.1666666666666667    0.1031966500000000 O
   0.2701011400000000    0.5000000000000000    0.1031966500000000 O
   0.2701011400000000    0.8333333333333333    0.1031966500000000 O
   0.0487140000000000    0.0000000000000000    0.6783663500000000 O
   0.0487140000000000    0.3333333333333333    0.6783663500000000 O
   0.0487140000000000    0.6666666666666666    0.6783663500000000 O
   0.9584156500000000    0.0000000000000000    0.3264710000000000 O
   0.9584156500000000    0.3333333333333333    0.3264710000000001 O
   0.9584156500000000    0.6666666666666666    0.3264710000000000 O
   0.5415843500000000    0.1666666666666667    0.6735290000000000 O
   0.5415843500000000    0.5000000000000000    0.6735290000000000 O
   0.5415843499999999    0.8333333333333333    0.6735290000000000 O
   0.4512860000000000    0.1666666666666667    0.3216336500000000 O
   0.4512860000000001    0.5000000000000000    0.3216336500000000 O
   0.4512860000000000    0.8333333333333333    0.3216336500000000 O
   0.7789760000000001    0.0000000000000000    0.6693499700000000 O
   0.7789760000000001    0.3333333333333333    0.6693499700000000 O
   0.7789760000000001    0.6666666666666666    0.6693499700000000 O
   0.2228560200000000    0.0000000000000000    0.3258374300000000 O
   0.2228560200000000    0.3333333333333333    0.3258374300000000 O
   0.2228560200000000    0.6666666666666666    0.3258374300000000 O
   0.2771439800000000    0.1666666666666667    0.6741625700000000 O
   0.2771439800000000    0.5000000000000000    0.6741625700000000 O
   0.2771439800000000    0.8333333333333333    0.6741625700000001 O
   0.7210239999999999    0.1666666666666667    0.3306500300000000 O
   0.7210239999999999    0.5000000000000000    0.3306500300000000 O
   0.7210239999999999    0.8333333333333333    0.3306500300000000 O
