K2 V8 O20                               
   1.00000000000000     
    11.6879997252999992    0.0000000000000000    0.0000000000000000
     0.0000000000000000    3.6679999828000001    0.0000000000000000
    -0.3715065370000000    0.0000000000000000    9.4977371025000004
   V    K    O 
     8     2    20
Direct
  0.9391000439999999  0.0000000000000000  0.1542999999999992
  0.0608999700000012  0.0000000000000000  0.8456999819999993
  0.4391000439999999  0.5000000000000000  0.1542999999999992
  0.5608999419999989  0.5000000000000000  0.8456999819999993
  0.2370000149999996  0.0000000000000000  0.1552000060000012
  0.7630000329999973  0.0000000000000000  0.8448000010000030
  0.7369999539999981  0.5000000000000000  0.1552000060000012
  0.2630000130000028  0.5000000000000000  0.8448000010000030
  0.4064999590000014  0.0000000000000000  0.5236999760000032
  0.9065000000000012  0.5000000000000000  0.5236999760000032
  0.4035999800000027  0.0000000000000000  0.1243999940000009
  0.5964000060000032  0.0000000000000000  0.8755999759999966
  0.9036000199999989  0.5000000000000000  0.1243999940000009
  0.0963999860000015  0.5000000000000000  0.8755999759999966
  0.0829999959999981  0.0000000000000000  0.0952999969999979
  0.9170000160000029  0.0000000000000000  0.9046999970000016
  0.5830000110000029  0.5000000000000000  0.0952999969999979
  0.4169999759999996  0.5000000000000000  0.9046999970000016
  0.7633000359999969  0.0000000000000000  0.1095999980000002
  0.2367000129999965  0.0000000000000000  0.8904000089999968
  0.2632999340000026  0.5000000000000000  0.1095999980000002
  0.7366999520000022  0.5000000000000000  0.8904000089999968
  0.9572999580000001  0.0000000000000000  0.3226999939999970
  0.0426999920000029  0.0000000000000000  0.6772999619999993
  0.4572999580000001  0.5000000000000000  0.3226999939999970
  0.5426999869999989  0.5000000000000000  0.6772999619999993
  0.2276999839999974  0.0000000000000000  0.3226999939999970
  0.7722999810000033  0.0000000000000000  0.6772999619999993
  0.7277000050000026  0.5000000000000000  0.3226999939999970
  0.2723000220000031  0.5000000000000000  0.6772999619999993
