 K12 V48 O120
   1.000
   11.1218142635866677    0.0000000029378915    0.0000000001745376
    0.0000000034701455   11.6319198175485106   -0.0000000282642665
   -0.0000000005619583   -0.0000000474600791   19.6479706938881620
   K    V    O 
   12   48  120
Selective Dynamics
Direct
    0.0000000191659950    0.3957637557513536    0.2499999958544947    F  F  F
    0.3333582013238114    0.3957508698174621    0.2499999834180926    F  F  F
    0.6666418416995157    0.3957508275763573    0.2500000186171789    F  F  F
    0.0000000232981279    0.6042362766233893    0.7499999956425043    T  T  T
    0.3333581438271409    0.6042491572716884    0.7500000026101787    T  T  T
    0.6666418099826998    0.6042491544138500    0.7499999979325196    T  T  T
    0.1666419071589402    0.8957508609554381    0.2499999904005321    F  F  F
    0.5000000018174759    0.8957637393519704    0.2500000011171295    F  F  F
    0.8333580972809997    0.8957508940557801    0.2500000178190973    F  F  F
    0.1666418580313902    0.1042491659621376    0.7499999883073301    T  T  T
    0.4999999881203863    0.1042363424726531    0.7500000135777327    T  T  T
    0.8333581318281063    0.1042491544503932    0.7500000120355068    T  T  T
    0.0000000176951218    0.9321242338884019    0.4269000949760056    F  F  F
    0.3333297440411158    0.9321245789663521    0.4268943439343218    F  F  F
    0.6666702245953644    0.9321241931340580    0.4268944613611652    F  F  F
    0.0000000206167883    0.0678755189689326    0.5730998879823801    T  T  T
    0.3333297226671448    0.0678757203549196    0.5731056419018401    T  T  T
    0.6666702556689543    0.0678757357440958    0.5731055476702451    T  T  T
    0.0000000230908057    0.9321240406174880    0.0730997120764840    F  F  F
    0.3333297747042110    0.9321245457934140    0.0731058492351835    F  F  F
    0.6666702065843211    0.9321243989592105    0.0731056807923025    F  F  F
    0.0000000559249997    0.0678760673073953    0.9269002495231220    T  T  T
    0.3333297641447359    0.0678753428168051    0.9268941090482627    T  T  T
    0.6666701819849692    0.0678756246058754    0.9268943702380525    T  T  T
    0.1666701826067936    0.4321245268293268    0.4268941606890948    F  F  F
    0.4999999953799872    0.4321237972351639    0.4269002244411055    F  F  F
    0.8333298196518086    0.4321247086977067    0.4268942715306068    F  F  F
    0.1666701974397213    0.5678753799609311    0.5731058376827889    T  T  T
    0.4999999695933965    0.5678759529066681    0.5730997972415111    T  T  T
    0.8333298064831638    0.5678756090494019    0.5731057636882824    T  T  T
    0.1666702961570792    0.4321245503774094    0.0731057232665790    F  F  F
    0.4999999232409849    0.4321243968369544    0.0730998331988033    F  F  F
    0.8333297789740541    0.4321242152503899    0.0731055693135758    F  F  F
    0.1666702761210033    0.5678751343606407    0.9268941190025757    T  T  T
    0.4999999198761742    0.5678758511537438    0.9269002350625897    T  T  T
    0.8333297825298231    0.5678758790597485    0.9268944659397889    T  T  T
    0.0000000864014638    0.2309639059890500    0.4249773935554870    F  F  F
    0.3333230754090621    0.2309732936619824    0.4249884347435255    F  F  F
    0.6666768312843772    0.2309736360400265    0.4249884781167879    F  F  F
    0.9999999524951591    0.7690362235646546    0.5750225650378837    T  T  T
    0.3333230056808674    0.7690264915646239    0.5750115546873076    T  T  T
    0.6666770315587627    0.7690263922652107    0.5750115066599406    T  T  T
    0.0000001153256335    0.2309641985654238    0.0750221973941194    F  F  F
    0.3333231162084402    0.2309732504722461    0.0750118843327527    F  F  F
    0.6666767972203118    0.2309734234957617    0.0750115585452775    F  F  F
    0.0000000349799762    0.7690357555590950    0.9249777567524546    T  T  T
    0.3333232297248401    0.7690267688213694    0.9249880294268991    T  T  T
    0.6666767427010356    0.7690265894240014    0.9249885241677873    T  T  T
    0.1666767052088716    0.7309732620362794    0.4249881306493819    F  F  F
    0.5000000613022166    0.7309643223648621    0.4249777508446044    F  F  F
    0.8333232388276812    0.7309732122828621    0.4249883266805412    F  F  F
    0.1666769156600978    0.2690267959704258    0.5750118422080845    T  T  T
    0.4999999100135568    0.2690357848863982    0.5750222457693610    T  T  T
    0.8333231773437149    0.2690266264205832    0.5750117270321340    T  T  T
    0.1666769796665832    0.7309733084264280    0.0750116733805726    F  F  F
    0.4999998911758397    0.7309639638057419    0.0750224076274648    F  F  F
    0.8333231372851415    0.7309736453515470    0.0750114972618547    F  F  F
    0.1666769127683452    0.2690268876974216    0.9249881631554828    T  T  T
    0.4999998475231209    0.2690358908837140    0.9249776925783664    T  T  T
    0.8333232429913267    0.2690263134880269    0.9249885402513058    T  T  T
    0.0000000066537424    0.0802415413180597    0.4549576480382953    F  F  F
    0.3333300404723332    0.0802594018211664    0.4549552383254394    F  F  F
    0.6666699526359494    0.0802595402329871    0.4549551916162287    F  F  F
    0.0000000110291083    0.9197586090481025    0.5450423192585276    T  T  T
    0.3333300415549374    0.9197403795487276    0.5450448083370887    T  T  T
    0.6666699484178764    0.9197405032126724    0.5450447919003665    T  T  T
    0.0000000355679290    0.0802413292674018    0.0450423260299715    F  F  F
    0.3333300725454293    0.0802596384898990    0.0450447875506370    F  F  F
    0.6666698910424245    0.0802595179635901    0.0450448426994896    F  F  F
    0.0000000469547672    0.9197585439987748    0.9549576347016995    T  T  T
    0.3333300638017036    0.9197403539451798    0.9549551840150770    T  T  T
    0.6666698901583032    0.9197405931245157    0.9549552405472710    T  T  T
    0.1666699072411504    0.5802596239287325    0.4549552230949914    F  F  F
    0.4999999886980504    0.5802414259935276    0.4549576355031562    F  F  F
    0.8333301052989981    0.5802594487166459    0.4549552263667138    F  F  F
    0.1666698986326978    0.4197404187343565    0.5450447721853138    T  T  T
    0.4999999911323982    0.4197587408203347    0.5450423264254169    T  T  T
    0.8333301091479299    0.4197403520926741    0.5450448181856444    T  T  T
    0.1666699556620514    0.5802595709957501    0.0450447650549677    F  F  F
    0.4999999702187239    0.5802413953913046    0.0450423437043455    F  F  F
    0.8333300743939560    0.5802595543403868    0.0450448494719993    F  F  F
    0.1666699597243877    0.4197404817238137    0.9549551859963188    T  T  T
    0.4999999586867361    0.4197585063929807    0.9549576533032322    T  T  T
    0.8333300782724820    0.4197405255423448    0.9549552105824191    T  T  T
    0.9999999245574003    0.2406582581262811    0.5540138262473775    T  T  T
    0.3333162876815052    0.2406539304110282    0.5540101254981877    T  T  T
    0.6666837886680383    0.2406540158647843    0.5540101404123376    T  T  T
    0.0000003736891827    0.7593418731512003    0.4459861799405047    F  F  F
    0.3333165135127700    0.7593458938071294    0.4459898660229697    F  F  F
    0.6666831111472931    0.7593460182746341    0.4459898577221892    F  F  F
    0.0000000653767458    0.2406582021851449    0.9459861346165610    T  T  T
    0.3333169080032690    0.2406538530267710    0.9459898865887197    T  T  T
    0.6666830314091357    0.2406541540497713    0.9459898626065524    T  T  T
    0.9999999896733485    0.7593416798404320    0.0540138626527380    F  F  F
    0.3333166787948372    0.7593461380960065    0.0540100852179464    F  F  F
    0.6666833347872227    0.7593459625352779    0.0540101826122950    F  F  F
    0.1666834189178914    0.7406539116428164    0.5540100960442942    T  T  T
    0.4999997891829722    0.7406583799494584    0.5540138687069387    T  T  T
    0.8333167923512619    0.7406538930580950    0.5540101237050337    T  T  T
    0.1666827582014321    0.2593461206133441    0.4459899093381381    F  F  F
    0.5000002431918986    0.2593417579036412    0.4459861306471069    F  F  F
    0.8333169953699624    0.2593459298802898    0.4459898696656239    F  F  F
    0.1666834730051008    0.7406540194267777    0.9459898590297087    T  T  T
    0.4999994248113850    0.7406581653639606    0.9459861634740747    T  T  T
    0.8333171028790005    0.7406539993641559    0.9459898610763418    T  T  T
    0.1666836924304675    0.2593460089521429    0.0540101181758175    F  F  F
    0.4999996872722718    0.2593417560189906    0.0540138504760890    F  F  F
    0.8333166213344896    0.2593460504675917    0.0540101544733744    F  F  F
    0.9999999887702486    0.2172419637031666    0.3431748893255957    F  F  F
    0.3333255503584240    0.2172406091002514    0.3431755243774575    F  F  F
    0.6666744548616705    0.2172405902563028    0.3431755581502927    F  F  F
    0.0000000131473783    0.7827580272171204    0.6568251898590205    T  T  T
    0.3333255551963958    0.7827594016922035    0.6568243370895814    T  T  T
    0.6666744333642853    0.7827593986565091    0.6568244138737853    T  T  T
    0.0000000117613368    0.2172419382561799    0.1568254436473708    F  F  F
    0.3333255706284746    0.2172406067904902    0.1568243094182975    F  F  F
    0.6666744159260176    0.2172406023456332    0.1568243663915894    F  F  F
    0.0000000302901384    0.7827580490171400    0.8431747509740859    T  T  T
    0.3333255489052576    0.7827593767438401    0.8431758054431597    T  T  T
    0.6666744202692669    0.7827593952477727    0.8431754385120200    T  T  T
    0.1666744355476979    0.7172406221739465    0.3431758211435110    F  F  F
    0.4999999912933646    0.7172419323906283    0.3431746619648237    F  F  F
    0.8333255765963088    0.7172406018693067    0.3431755246253587    F  F  F
    0.1666744149635733    0.2827593696106376    0.6568242195054452    T  T  T
    0.5000000036545131    0.2827580640367913    0.6568254795226807    T  T  T
    0.8333255842542755    0.2827593962046677    0.6568242732208560    T  T  T
    0.1666744482474911    0.7172406220860097    0.1568243702901952    F  F  F
    0.4999999946701834    0.7172419584133465    0.1568252402445083    F  F  F
    0.8333255611788104    0.7172405595776539    0.1568245307107645    F  F  F
    0.1666744565873088    0.2827593982285137    0.8431755751291519    T  T  T
    0.4999999793853362    0.2827580390607025    0.8431747972299490    T  T  T
    0.8333255621306250    0.2827594212661495    0.8431755165975616    T  T  T
    0.0000002484861241    0.3997270368003782    0.4397113144989930    F  F  F
    0.3333598133979692    0.3997215271426526    0.4397173720165313    F  F  F
    0.6666399335573914    0.3997213493817142    0.4397173542094421    F  F  F
    0.9999999762560918    0.6002727481780781    0.5602886849039592    T  T  T
    0.3333596668209964    0.6002787454334069    0.5602826385271271    T  T  T
    0.6666403503049310    0.6002785846568344    0.5602826427805070    T  T  T
    0.9999999750517361    0.3997273706335989    0.0602886780046035    F  F  F
    0.3333599643538392    0.3997211393459779    0.0602826437670743    F  F  F
    0.6666400594761939    0.3997214018500728    0.0602826380549004    F  F  F
    0.0000000354287906    0.6002728048726098    0.9397113177688752    T  T  T
    0.3333600987778453    0.6002788722115326    0.9397173509219598    T  T  T
    0.6666398645797145    0.6002783946666952    0.9397173811707233    T  T  T
    0.1666396895619329    0.8997211722461316    0.4397173566918937    F  F  F
    0.5000001520057467    0.8997272588649210    0.4397113125775007    F  F  F
    0.8333601568228488    0.8997214672321263    0.4397173588862842    F  F  F
    0.1666400959528076    0.1002787749768856    0.5602826419931688    T  T  T
    0.4999998727582948    0.1002725149475907    0.5602886810454066    T  T  T
    0.8333600347185310    0.1002788097285787    0.5602826445190559    T  T  T
    0.1666402788098367    0.8997213396232411    0.0602826225799475    F  F  F
    0.4999997915041519    0.8997272566120458    0.0602886879699014    F  F  F
    0.8333599295149625    0.8997213062761205    0.0602826546048334    F  F  F
    0.1666401606705747    0.1002786383823064    0.9397173612132050    T  T  T
    0.4999995852124997    0.1002728660200134    0.9397113165095661    T  T  T
    0.8333602541020682    0.1002785887133797    0.9397173707521418    T  T  T
    0.0000000054403131    0.9444244554885373    0.3439917911461023    F  F  F
    0.3333388447116477    0.9444128080586864    0.3439956108335593    F  F  F
    0.6666611563664020    0.9444128379810763    0.3439956727879192    F  F  F
    0.0000000001810818    0.0555755616103397    0.6560083060535362    T  T  T
    0.3333388401896897    0.0555871645274166    0.6560042545576579    T  T  T
    0.6666611567672902    0.0555871631577673    0.6560043417822428    T  T  T
    0.0000000070019155    0.9444244586227128    0.1560084098643415    F  F  F
    0.3333388541799778    0.9444128162964276    0.1560041816040467    F  F  F
    0.6666611395887827    0.9444128152514182    0.1560042953403027    F  F  F
    0.0000000294697742    0.0555755253838086    0.8439916963940917    T  T  T
    0.3333388436734239    0.0555871839072992    0.8439958349436054    T  T  T
    0.6666611217329006    0.0555871938140271    0.8439955989936720    T  T  T
    0.1666611310734183    0.4444128083014007    0.3439958419940297    F  F  F
    0.5000000013072992    0.4444244858942241    0.3439916336890150    F  F  F
    0.8333388616017459    0.4444128066302113    0.3439956307709764    F  F  F
    0.1666611349338751    0.5555871891523765    0.6560042137249695    T  T  T
    0.4999999894078755    0.5555755398696363    0.6560084584960535    T  T  T
    0.8333388723870243    0.5555871658434413    0.6560042157934873    T  T  T
    0.1666611581512996    0.4444127975647376    0.1560042840192324    F  F  F
    0.4999999948265526    0.4444244501844778    0.1560083202612148    F  F  F
    0.8333388503315859    0.4444128527092062    0.1560043435248346    F  F  F
    0.1666611686538459    0.5555872052801831    0.8439957620339840    T  T  T
    0.4999999747881532    0.5555755349485523    0.8439917165132371    T  T  T
    0.8333388668633646    0.5555871535112686    0.8439956358293514    T  T  T
