 K12 V48 O117
   1.000
   11.1002222102052386    0.0086874947143733   -0.0064124461340955
    0.0096015836870881   11.8716314594805805   -0.7127434443629337
   -0.0100284434806427    0.1910124590468086   18.8871548239503397
   K    V    O 
   12   48  117
Selective Dynamics
Direct
    0.9926065480823141    0.5474031754400670    0.2410948183192261    F  F  F
    0.3351716299337184    0.5260052486416527    0.2453852631986635    F  F  F
    0.6698973855677011    0.5409962405669759    0.2482661033686284    F  F  F
    0.0005524814567579    0.3519575085050874    0.7580063336153486    T  T  T
    0.3339794699671614    0.3514663314245610    0.7574172355182824    T  T  T
    0.6650626514405928    0.3521315847757265    0.7572040113809564    T  T  T
    0.1651009433282553    0.1117211982986106    0.2248734871116227    F  F  F
    0.5002546339468736    0.1108044464636535    0.2276356424539685    F  F  F
    0.8345189545442082    0.1172141154955213    0.2283420254077129    F  F  F
    0.1662299809307441    0.9058594067890127    0.7625116769646780    T  T  T
    0.4980207002899917    0.9188281316562978    0.7569773672816069    T  T  T
    0.8369812956824632    0.9001110012636744    0.7606629625128960    T  T  T
    0.9955916402823490    0.9234069668387193    0.4392263819303750    F  F  F
    0.3318023224259719    0.9233793746627654    0.4299640913198743    F  F  F
    0.6698079314520555    0.9234956084422592    0.4404760875290066    F  F  F
    0.9999750362460986    0.0762951557138365    0.5745481237136474    T  T  T
    0.3330955107004172    0.0738151184088309    0.5693460575530551    T  T  T
    0.6657603395364617    0.0796725322524381    0.5695027890624402    T  T  T
    0.9997827486277870    0.9437419558781954    0.0810987144590811    F  F  F
    0.3330907752588104    0.9367496293630708    0.0841434382655279    F  F  F
    0.6676638989641432    0.9403315110887007    0.0812651258473380    F  F  F
    0.9997657197170255    0.0579490828360960    0.9275158554433034    T  T  T
    0.3322942977611163    0.0603747979789020    0.9289124305614038    T  T  T
    0.6674365377668892    0.0594147547019546    0.9257979007007648    T  T  T
    0.1653009996988217    0.4201816807357233    0.4138160049618804    F  F  F
    0.4999898255374262    0.4149751591352953    0.4147066937199213    F  F  F
    0.8332096727618534    0.4178741220844699    0.4169991868753797    F  F  F
    0.1685888078602247    0.5715122764152412    0.5518568757196718    T  T  T
    0.4987688904017702    0.5718447643535072    0.5489325257935818    T  T  T
    0.8343463340590418    0.5749485806988446    0.5559154544558140    T  T  T
    0.1678621513233693    0.4368937100196817    0.0714299023586307    F  F  F
    0.4997555779784264    0.4373288029664266    0.0711663456897895    F  F  F
    0.8328539771612427    0.4379101266959537    0.0681758473011200    F  F  F
    0.1666896883054889    0.5611251430571471    0.9335560154058840    T  T  T
    0.4986690739323620    0.5605292333662746    0.9330052177715586    T  T  T
    0.8329365539515123    0.5631103585390704    0.9289647449841993    T  T  T
    0.0011900548626258    0.2152472466168476    0.4094878140666580    F  F  F
    0.3337070392537385    0.2168351906573918    0.4090325556346670    F  F  F
    0.6681123942850249    0.2178524416877394    0.4087384004900230    F  F  F
    0.0003571218719713    0.7738434097474922    0.5802414638945592    T  T  T
    0.3344341748054873    0.7773139787719430    0.5796100499523504    T  T  T
    0.6654383543315348    0.7737089924083449    0.5813908138170376    T  T  T
    0.9994131552507000    0.2400190374009838    0.0747353205160266    F  F  F
    0.3332077260788395    0.2336698247399767    0.0744373148232143    F  F  F
    0.6660877465413222    0.2357001066459148    0.0715291879298547    F  F  F
    0.0002684699843201    0.7661501817330887    0.9253652010743707    T  T  T
    0.3324150602513996    0.7684161913456862    0.9362441259487468    T  T  T
    0.6666776748646583    0.7674565751530267    0.9283168937481534    T  T  T
    0.1661189372547156    0.7330191324785460    0.4333246881892379    F  F  F
    0.5002753540348337    0.7305568886981604    0.4339113306292930    F  F  F
    0.8326820417225065    0.7179545473769906    0.4148796046340166    F  F  F
    0.1676361800113781    0.2767860482997833    0.5744457455811229    T  T  T
    0.4991962755966597    0.2767419840778373    0.5732611824076415    T  T  T
    0.8339951642822996    0.2785316251752832    0.5730606903992310    T  T  T
    0.1639991930667009    0.7379384428249836    0.0743641826003625    F  F  F
    0.5030602938400364    0.7376629522115152    0.0751664742497553    F  F  F
    0.8356843572924220    0.7352442735643478    0.0776058597491485    F  F  F
    0.1657979822660849    0.2586855793274623    0.9253519347915429    T  T  T
    0.4995809786332828    0.2579232582240394    0.9227019049928700    T  T  T
    0.8335525590342527    0.2594875105465633    0.9244701056392515    T  T  T
    0.9962157457613259    0.9283392565223920    0.5404486469310683    T  T  T
    0.3334152986958827    0.9260577942405845    0.5344213551611787    T  T  T
    0.6710073470625062    0.9258962489579332    0.5394393354311973    T  T  T
    0.9977654789039576    0.0805163795627095    0.0513429673768044    F  F  F
    0.3337618550329466    0.0887195501049689    0.0513097360237111    F  F  F
    0.6690578641992815    0.0839749124477365    0.0486570477015036    F  F  F
    0.9976670787047155    0.9209678700610624    0.9588528208089571    T  T  T
    0.3345457411289630    0.9202167420866871    0.9648667633707717    T  T  T
    0.6673423421843125    0.9178771201202380    0.9594196409648035    T  T  T
    0.1685533999402367    0.5684655832906813    0.4495717256692444    F  F  F
    0.4982818134648070    0.5741751921086617    0.4508964531809312    F  F  F
    0.8340407556421710    0.5714193700334818    0.4516873148510712    F  F  F
    0.1668927114721370    0.4098620571380138    0.5387426190726785    T  T  T
    0.4969087350226786    0.4191277881789617    0.5334481076505995    T  T  T
    0.8370143047957512    0.4130284235017641    0.5375422193299215    T  T  T
    0.1662576982105506    0.5777843590895131    0.0419210529759155    F  F  F
    0.5023744395681931    0.5774373444999554    0.0421874201376795    F  F  F
    0.8306297731797585    0.5843129250813277    0.0392120446048239    F  F  F
    0.1664412166855342    0.4165950595962045    0.9540934357539470    T  T  T
    0.4993858634341635    0.4158701625105294    0.9525269202308309    T  T  T
    0.8319182315057105    0.4193998076064318    0.9528468404874317    T  T  T
    0.0004391862442077    0.2415177063857286    0.5570016751869176    T  T  T
    0.3289344597451986    0.2389772411793203    0.5537371192945031    T  T  T
    0.6712091283615749    0.2428203579843213    0.5516570662270723    T  T  T
    0.9900572281464832    0.7487911188078300    0.4421497751235748    F  F  F
    0.3340632724897503    0.7524938200389073    0.4143294865102476    F  F  F
    0.6753206495284729    0.7479162922346845    0.4405210430894400    F  F  F
    0.9993604166270273    0.2274186530222764    0.9517105287432770    T  T  T
    0.3338159636999620    0.2274253898577996    0.9475894470033239    T  T  T
    0.6660391530752747    0.2267475297473212    0.9474212443046781    T  T  T
    0.9928517284567278    0.7644974351924247    0.0542603096139587    F  F  F
    0.3338556437637976    0.7707138248563439    0.0599967822314227    F  F  F
    0.6740465956516744    0.7684174259354961    0.0581745949645480    F  F  F
    0.1705080986824967    0.7450987748165048    0.5412601900222640    T  T  T
    0.4980986251196811    0.7483470341118732    0.5415762689259722    T  T  T
    0.8320122582411642    0.7435271225448972    0.5574990134489610    T  T  T
    0.1658029743228582    0.2527002455791560    0.4273059983447212    F  F  F
    0.4953229029506758    0.2491722012636117    0.4299362438905945    F  F  F
    0.8391864473192783    0.2532216685942359    0.4293227170318019    F  F  F
    0.1693290269960457    0.7417107872987430    0.9581329839729023    T  T  T
    0.5007449647325686    0.7418118553653414    0.9593750914742714    T  T  T
    0.8283499970434605    0.7406285231406571    0.9432106682577412    T  T  T
    0.1700805037180899    0.2679897693755393    0.0536932907145555    F  F  F
    0.5010300904107083    0.2649133658611902    0.0528432087589792    F  F  F
    0.8285978562135696    0.2677203712770151    0.0520388364667070    F  F  F
    0.0011690527718002    0.1871185983496346    0.3241819387266318    F  F  F
    0.3331514981353223    0.1878740174340976    0.3238424122626498    F  F  F
    0.6669258125936537    0.1840680110015427    0.3235345079956673    F  F  F
    0.0112144063068911    0.8144784441841679    0.6638990974268637    T  T  T
    0.3331533809425480    0.8153675846458626    0.6636309727936833    T  T  T
    0.6568007965846618    0.8130365366206647    0.6653172535556564    T  T  T
    0.9979846570670219    0.2336617029105383    0.1615872312404747    F  F  F
    0.3350454909089109    0.2346205787006213    0.1609979114632694    F  F  F
    0.6661382299141607    0.2316815141982005    0.1575903129740013    F  F  F
    0.0087684479085439    0.7837249931974242    0.8400039465458775    T  T  T
    0.3344747158035872    0.7826634798009877    0.8512485173862387    T  T  T
    0.6530214428924879    0.7824144528186281    0.8437539245548038    T  T  T
    0.1707454739943728    0.6965488769026891    0.2321823749702645    F  F  F
    0.4988143557829545    0.6967606602849372    0.2330544205919125    F  F  F
    0.8341197221923338    0.6795423283390392    0.3314969209118175    F  F  F
    0.1682967879127659    0.3017345429857130    0.6598447230867848    T  T  T
    0.5002315282398158    0.3053182786253288    0.6587984315053106    T  T  T
    0.8314624194051348    0.3049555184611989    0.6582146221143503    T  T  T
    0.1636781163386303    0.7176302757120823    0.1646442178774734    F  F  F
    0.5030509619630052    0.7180804446231406    0.1655527161232300    F  F  F
    0.8383275572085793    0.7103576554469271    0.1610341540397542    F  F  F
    0.1650028028216042    0.2687212710021711    0.8389139008412769    T  T  T
    0.4997807003708701    0.2662023550119201    0.8361590807080646    T  T  T
    0.8344612610141127    0.2704289185481770    0.8381119314114684    T  T  T
    0.0020363789885565    0.3836372608967977    0.4286568556209218    F  F  F
    0.3260887539210486    0.3832911395343501    0.4235034397002764    F  F  F
    0.6732949325386457    0.3859254846162088    0.4269367379549251    F  F  F
    0.0042401709690267    0.6066484441943913    0.5794554758442274    T  T  T
    0.3388474611094381    0.6074126777976900    0.5775131916774754    T  T  T
    0.6581680703817270    0.6039084847927256    0.5765979039186959    T  T  T
    0.9970937253912240    0.4052592727526019    0.0599683113402776    F  F  F
    0.3350864345644808    0.4018666141744873    0.0611281017344396    F  F  F
    0.6661866135709786    0.3991129023551352    0.0571554387331048    F  F  F
    0.9995373025094167    0.6022359472249761    0.9366288610373132    T  T  T
    0.3341025923526217    0.6055796828359590    0.9418464722876223    T  T  T
    0.6644525129148349    0.6052255989993398    0.9367302194205251    T  T  T
    0.1599800054313150    0.8932915150514802    0.4107293688702924    F  F  F
    0.5107539658204843    0.8971922571128559    0.4141964227355714    F  F  F
    0.8286539106379109    0.8880204319288865    0.4100263320660460    F  F  F
    0.1647187070316036    0.1086064915428082    0.5587457045353403    T  T  T
    0.5001793454392924    0.1080086293801727    0.5563789429928292    T  T  T
    0.8352660564867449    0.1116036369781881    0.5598126414089606    T  T  T
    0.1604689119276372    0.9042615539955037    0.0716526739340253    F  F  F
    0.5081396487510617    0.9065510631348630    0.0718413246106167    F  F  F
    0.8328662033063381    0.8999531453227405    0.0702597032486096    F  F  F
    0.1678171298395625    0.0924445742381366    0.9401286989098665    T  T  T
    0.5005587430827489    0.0919836419022246    0.9381884664139690    T  T  T
    0.8315484341605313    0.0931307093216418    0.9376727354289258    T  T  T
    0.9991548025927486    0.0838908569732979    0.4468238971498195    F  F  F
    0.3285048557609187    0.0826384150371737    0.4455593203160362    F  F  F
    0.6730035325781927    0.0749248367248683    0.4504943756118820    F  F  F
    0.0006026717857424    0.0622686605547571    0.6590579488677548    T  T  T
    0.3346798922157532    0.0576198105607730    0.6538175458375477    T  T  T
    0.6659944017976258    0.0637566360281312    0.6541559792302820    T  T  T
    0.9947983610340785    0.9666178884615420    0.1677065745966289    F  F  F
    0.3338958704893926    0.9679441724307836    0.1704915077885829    F  F  F
    0.6723589827927654    0.9715730330413237    0.1667892131598521    F  F  F
    0.0008788375177886    0.0356067442499466    0.8413149533046962    T  T  T
    0.3320500209757640    0.0289382986831441    0.8436111735716239    T  T  T
    0.6669144529847770    0.0311340324823277    0.8402247308643211    T  T  T
    0.1583468926962652    0.4443569609750142    0.3297061158742736    F  F  F
    0.5029435378566163    0.4433378696875963    0.3301059741080365    F  F  F
    0.8395313185992777    0.4406308693601559    0.3327630677624995    F  F  F
    0.1688988065458759    0.5237320279660835    0.7737306053398996    T  T  T
    0.4989156204163478    0.5247182027849959    0.7733507703077365    T  T  T
    0.8318690630076802    0.5230504214638003    0.7695369042092608    T  T  T
    0.1644683821849426    0.4571297637310536    0.1577239065493004    F  F  F
    0.5061968087799897    0.4564174248222272    0.1574362067345660    F  F  F
    0.8270075178886458    0.4634255218397243    0.1540623565255501    F  F  F
    0.1702269071388329    0.5440163608909216    0.8417696353860791    T  T  T
    0.4962354730041127    0.5450790092238265    0.8413361735111380    T  T  T
    0.8317792167203493    0.5425962256574124    0.8377602322268203    T  T  T
