Na2 Mn48 Co48 S2                        
   1.00000000000000     
     9.9475087679858625    0.0000000000000000   -0.0642715153651900
     4.9334962509818583    8.6928626692229010   -0.1434234665729407
     0.0000000000000000    0.0000000000000000   24.4783711218720370
   Na   Mn   Co   S 
     2    48    48     2
Selective dynamics
Direct
  0.1697827118583780  0.3168846944681071  0.8418129904624102   T   T   T
  0.1666836240028248  0.8803878945787573  0.8289537632017101   T   T   T
  0.1251009893290203  0.3747980213419595  0.3750504946645137   F   F   F
  0.1251009893290203  0.8747980213419595  0.3750504946645137   F   F   F
  0.6251009893290203  0.3747980213419595  0.3750504946645137   F   F   F
  0.6251009893290203  0.8747980213419595  0.3750504946645137   F   F   F
  0.2917676559956845  0.0414646880086238  0.4583838279978423   F   F   F
  0.2917676559956845  0.5414646880086238  0.4583838279978423   F   F   F
  0.7917676559956845  0.0414646880086238  0.4583838279978423   F   F   F
  0.7917676559956845  0.5414646880086238  0.4583838279978423   F   F   F
  0.4584343226623560  0.2081313546752881  0.2917171613311780   F   F   F
  0.4584343226623560  0.7081313546752881  0.2917171613311780   F   F   F
  0.9584343226623560  0.2081313546752881  0.2917171613311780   F   F   F
  0.9584343226623560  0.7081313546752881  0.2917171613311780   F   F   F
  0.3748990106709797  0.1252019786580405  0.3749495053354863   F   F   F
  0.3748990106709797  0.6252019786580405  0.3749495053354863   F   F   F
  0.8748990106709797  0.1252019786580405  0.3749495053354863   F   F   F
  0.8748990106709797  0.6252019786580405  0.3749495053354863   F   F   F
  0.0415656773376440  0.2918686453247119  0.4582828386688220   F   F   F
  0.0415656773376440  0.7918686453247119  0.4582828386688220   F   F   F
  0.5415656773376440  0.2918686453247119  0.4582828386688220   F   F   F
  0.5415656773376440  0.7918686453247119  0.4582828386688220   F   F   F
  0.2082323440043155  0.4585353119913762  0.2916161720021577   F   F   F
  0.2082323440043155  0.9585353119913762  0.2916161720021577   F   F   F
  0.7082323440043155  0.4585353119913762  0.2916161720021577   F   F   F
  0.7082323440043155  0.9585353119913762  0.2916161720021577   F   F   F
  0.1255535315112067  0.3744247311469341  0.6268643173171000   T   T   T
  0.1252024652208380  0.8774464065435849  0.6265821104098728   T   T   T
  0.6270857523702060  0.3754999728323498  0.6264594018342937   T   T   T
  0.6261062263715550  0.8769688979283254  0.6252184582823903   T   T   T
  0.2906877148475642  0.0434857654596379  0.7038566682000106   T   T   T
  0.2908019734662241  0.5429839947469111  0.7095706135792574   T   T   T
  0.7919969471544308  0.0410199575216148  0.7093321519278509   T   T   T
  0.7959080353277648  0.5385670590243929  0.7099571281873711   T   T   T
  0.4584343226623560  0.2081313546752881  0.5417171613311780   F   F   F
  0.4584343226623560  0.7081313546752881  0.5417171613311780   F   F   F
  0.9584343226623560  0.2081313546752881  0.5417171613311780   F   F   F
  0.9584343226623560  0.7081313546752881  0.5417171613311780   F   F   F
  0.3769506325902038  0.1256183598114850  0.6250412516345110   T   T   T
  0.3759082556890372  0.6263858914146987  0.6260132755813522   T   T   T
  0.8753844712775303  0.1254852711353156  0.6255812827822040   T   T   T
  0.8757976880963332  0.6280465733785878  0.6249422553221557   T   T   T
  0.0402287346400729  0.2932251940558208  0.7099560156509225   T   T   T
  0.0424201694120723  0.7909451700201406  0.7090448601362531   T   T   T
  0.5411681591682911  0.2927235113991620  0.7092786522333115   T   T   T
  0.5399207420921105  0.7933614579306921  0.7102405396809792   T   T   T
  0.2082323440043155  0.4585353119913762  0.5416161720021577   F   F   F
  0.2082323440043155  0.9585353119913762  0.5416161720021577   F   F   F
  0.7082323440043155  0.4585353119913762  0.5416161720021577   F   F   F
  0.7082323440043155  0.9585353119913762  0.5416161720021577   F   F   F
  0.4583946692454859  0.4582106615090282  0.2916973346227394   F   F   F
  0.4583946692454859  0.9582106615090282  0.2916973346227394   F   F   F
  0.9583946692454859  0.4582106615090282  0.2916973346227394   F   F   F
  0.9583946692454859  0.9582106615090282  0.2916973346227394   F   F   F
  0.1250613359121502  0.1248773281756925  0.3750306679560751   F   F   F
  0.1250613359121502  0.6248773281756925  0.3750306679560751   F   F   F
  0.6250613359121502  0.1248773281756925  0.3750306679560751   F   F   F
  0.6250613359121502  0.6248773281756925  0.3750306679560751   F   F   F
  0.2917280025788216  0.2915439948423639  0.4583640012894108   F   F   F
  0.2917280025788216  0.7915439948423639  0.4583640012894108   F   F   F
  0.7917280025788216  0.2915439948423639  0.4583640012894108   F   F   F
  0.7917280025788216  0.7915439948423639  0.4583640012894108   F   F   F
  0.3749386640878498  0.3751226718243075  0.3749693320439249   F   F   F
  0.3749386640878498  0.8751226718243075  0.3749693320439249   F   F   F
  0.8749386640878498  0.3751226718243075  0.3749693320439249   F   F   F
  0.8749386640878498  0.8751226718243075  0.3749693320439249   F   F   F
  0.0416053307545141  0.0417893384909718  0.4583026653772535   F   F   F
  0.0416053307545141  0.5417893384909718  0.4583026653772535   F   F   F
  0.5416053307545141  0.0417893384909718  0.4583026653772535   F   F   F
  0.5416053307545141  0.5417893384909718  0.4583026653772535   F   F   F
  0.2082719974211784  0.2084560051576361  0.2916359987105892   F   F   F
  0.2082719974211784  0.7084560051576361  0.2916359987105892   F   F   F
  0.7082719974211784  0.2084560051576361  0.2916359987105892   F   F   F
  0.7082719974211784  0.7084560051576361  0.2916359987105892   F   F   F
  0.4583946692454859  0.4582106615090282  0.5416973346227394   F   F   F
  0.4583946692454859  0.9582106615090282  0.5416973346227394   F   F   F
  0.9583946692454859  0.4582106615090282  0.5416973346227394   F   F   F
  0.9583946692454859  0.9582106615090282  0.5416973346227394   F   F   F
  0.1225769690162915  0.1271638482186944  0.6252426836733948   T   T   T
  0.1245127503213308  0.6257442027647120  0.6239466301259667   T   T   T
  0.6248683270283006  0.1247652177729943  0.6242738343128874   T   T   T
  0.6251756265740215  0.6250979488516840  0.6240068020885261   T   T   T
  0.2894177746340776  0.2925807282060321  0.7060198565940319   T   T   T
  0.2919315385306377  0.7899777503555550  0.7052166975597766   T   T   T
  0.7916537304268242  0.2913606492695067  0.7061296701705921   T   T   T
  0.7907257112072924  0.7907187710172187  0.7059249136689565   T   T   T
  0.3752295920598880  0.3747036316239107  0.6240719483167264   T   T   T
  0.3745348518017550  0.8756991164180244  0.6234308567108329   T   T   T
  0.8775985374486548  0.3729804443790201  0.6250642688588222   T   T   T
  0.8749688481928120  0.8756115508869783  0.6237783606270347   T   T   T
  0.0398907673511081  0.0456218275222608  0.7088283531734805   T   T   T
  0.0421617368913215  0.5385066240686585  0.7067143163530271   T   T   T
  0.5409702055117671  0.0422139385858396  0.7057960654544339   T   T   T
  0.5410189361246420  0.5416801471453434  0.7056056951909867   T   T   T
  0.2082719974211784  0.2084560051576361  0.5416359987105892   F   F   F
  0.2082719974211784  0.7084560051576361  0.5416359987105892   F   F   F
  0.7082719974211784  0.2084560051576361  0.5416359987105892   F   F   F
  0.7082719974211784  0.7084560051576361  0.5416359987105892   F   F   F
  0.3141407068336756  0.0341195556465598  0.7975108101460996   T   T   T
  0.0157286268572002  0.1819901489451320  0.7867971130916488   T   T   T
 
  0.00000000E+00  0.00000000E+00  0.00000000E+00
  0.00000000E+00  0.00000000E+00  0.00000000E+00
  0.00000000E+00  0.00000000E+00  0.00000000E+00
  0.00000000E+00  0.00000000E+00  0.00000000E+00
  0.00000000E+00  0.00000000E+00  0.00000000E+00
  0.00000000E+00  0.00000000E+00  0.00000000E+00
  0.00000000E+00  0.00000000E+00  0.00000000E+00
  0.00000000E+00  0.00000000E+00  0.00000000E+00
  0.00000000E+00  0.00000000E+00  0.00000000E+00
  0.00000000E+00  0.00000000E+00  0.00000000E+00
  0.00000000E+00  0.00000000E+00  0.00000000E+00
  0.00000000E+00  0.00000000E+00  0.00000000E+00
  0.00000000E+00  0.00000000E+00  0.00000000E+00
  0.00000000E+00  0.00000000E+00  0.00000000E+00
  0.00000000E+00  0.00000000E+00  0.00000000E+00
  0.00000000E+00  0.00000000E+00  0.00000000E+00
  0.00000000E+00  0.00000000E+00  0.00000000E+00
  0.00000000E+00  0.00000000E+00  0.00000000E+00
  0.00000000E+00  0.00000000E+00  0.00000000E+00
  0.00000000E+00  0.00000000E+00  0.00000000E+00
  0.00000000E+00  0.00000000E+00  0.00000000E+00
  0.00000000E+00  0.00000000E+00  0.00000000E+00
  0.00000000E+00  0.00000000E+00  0.00000000E+00
  0.00000000E+00  0.00000000E+00  0.00000000E+00
  0.00000000E+00  0.00000000E+00  0.00000000E+00
  0.00000000E+00  0.00000000E+00  0.00000000E+00
  0.00000000E+00  0.00000000E+00  0.00000000E+00
  0.00000000E+00  0.00000000E+00  0.00000000E+00
  0.00000000E+00  0.00000000E+00  0.00000000E+00
  0.00000000E+00  0.00000000E+00  0.00000000E+00
  0.00000000E+00  0.00000000E+00  0.00000000E+00
  0.00000000E+00  0.00000000E+00  0.00000000E+00
  0.00000000E+00  0.00000000E+00  0.00000000E+00
  0.00000000E+00  0.00000000E+00  0.00000000E+00
  0.00000000E+00  0.00000000E+00  0.00000000E+00
  0.00000000E+00  0.00000000E+00  0.00000000E+00
  0.00000000E+00  0.00000000E+00  0.00000000E+00
  0.00000000E+00  0.00000000E+00  0.00000000E+00
  0.00000000E+00  0.00000000E+00  0.00000000E+00
  0.00000000E+00  0.00000000E+00  0.00000000E+00
  0.00000000E+00  0.00000000E+00  0.00000000E+00
  0.00000000E+00  0.00000000E+00  0.00000000E+00
  0.00000000E+00  0.00000000E+00  0.00000000E+00
  0.00000000E+00  0.00000000E+00  0.00000000E+00
  0.00000000E+00  0.00000000E+00  0.00000000E+00
  0.00000000E+00  0.00000000E+00  0.00000000E+00
  0.00000000E+00  0.00000000E+00  0.00000000E+00
  0.00000000E+00  0.00000000E+00  0.00000000E+00
  0.00000000E+00  0.00000000E+00  0.00000000E+00
  0.00000000E+00  0.00000000E+00  0.00000000E+00
  0.00000000E+00  0.00000000E+00  0.00000000E+00
  0.00000000E+00  0.00000000E+00  0.00000000E+00
  0.00000000E+00  0.00000000E+00  0.00000000E+00
  0.00000000E+00  0.00000000E+00  0.00000000E+00
  0.00000000E+00  0.00000000E+00  0.00000000E+00
  0.00000000E+00  0.00000000E+00  0.00000000E+00
  0.00000000E+00  0.00000000E+00  0.00000000E+00
  0.00000000E+00  0.00000000E+00  0.00000000E+00
  0.00000000E+00  0.00000000E+00  0.00000000E+00
  0.00000000E+00  0.00000000E+00  0.00000000E+00
  0.00000000E+00  0.00000000E+00  0.00000000E+00
  0.00000000E+00  0.00000000E+00  0.00000000E+00
  0.00000000E+00  0.00000000E+00  0.00000000E+00
  0.00000000E+00  0.00000000E+00  0.00000000E+00
  0.00000000E+00  0.00000000E+00  0.00000000E+00
  0.00000000E+00  0.00000000E+00  0.00000000E+00
  0.00000000E+00  0.00000000E+00  0.00000000E+00
  0.00000000E+00  0.00000000E+00  0.00000000E+00
  0.00000000E+00  0.00000000E+00  0.00000000E+00
  0.00000000E+00  0.00000000E+00  0.00000000E+00
  0.00000000E+00  0.00000000E+00  0.00000000E+00
  0.00000000E+00  0.00000000E+00  0.00000000E+00
  0.00000000E+00  0.00000000E+00  0.00000000E+00
  0.00000000E+00  0.00000000E+00  0.00000000E+00
  0.00000000E+00  0.00000000E+00  0.00000000E+00
  0.00000000E+00  0.00000000E+00  0.00000000E+00
  0.00000000E+00  0.00000000E+00  0.00000000E+00
  0.00000000E+00  0.00000000E+00  0.00000000E+00
  0.00000000E+00  0.00000000E+00  0.00000000E+00
  0.00000000E+00  0.00000000E+00  0.00000000E+00
  0.00000000E+00  0.00000000E+00  0.00000000E+00
  0.00000000E+00  0.00000000E+00  0.00000000E+00
  0.00000000E+00  0.00000000E+00  0.00000000E+00
  0.00000000E+00  0.00000000E+00  0.00000000E+00
  0.00000000E+00  0.00000000E+00  0.00000000E+00
  0.00000000E+00  0.00000000E+00  0.00000000E+00
  0.00000000E+00  0.00000000E+00  0.00000000E+00
  0.00000000E+00  0.00000000E+00  0.00000000E+00
  0.00000000E+00  0.00000000E+00  0.00000000E+00
  0.00000000E+00  0.00000000E+00  0.00000000E+00
  0.00000000E+00  0.00000000E+00  0.00000000E+00
  0.00000000E+00  0.00000000E+00  0.00000000E+00
  0.00000000E+00  0.00000000E+00  0.00000000E+00
  0.00000000E+00  0.00000000E+00  0.00000000E+00
  0.00000000E+00  0.00000000E+00  0.00000000E+00
  0.00000000E+00  0.00000000E+00  0.00000000E+00
  0.00000000E+00  0.00000000E+00  0.00000000E+00
  0.00000000E+00  0.00000000E+00  0.00000000E+00
  0.00000000E+00  0.00000000E+00  0.00000000E+00
  0.00000000E+00  0.00000000E+00  0.00000000E+00
