K2 V8 Zn1 O19                           
    1.000000000000000     
    11.7902299875857306    0.0000000000000000    0.2693731532787232
     0.0000000000000000    3.7919035850116920    0.0000000000000000
     0.2255261041399059    0.0000000000000000    8.9046037892417473
   Zn   K    V    O 
     1     2     8    19
Direct
  0.2503198455935177  0.5000000000000000  0.4248200582008835
  0.5302677522700098  0.0000000000000000  0.4670796493599808
  0.9208194297222999  0.5000000000000000  0.5788684018277012
  0.0811871266949737  0.0000000000000000  0.8213709112640878
  0.9310545529100016  0.0000000000000000  0.1938345884444513
  0.5796939432889424  0.5000000000000000  0.8347850122608191
  0.4300999260702957  0.5000000000000000  0.1403741779532450
  0.7729402925367912  0.0000000000000000  0.9101043852108220
  0.2252613082969144  0.0000000000000000  0.1298880590552807
  0.2737504457232204  0.5000000000000000  0.8240245044137071
  0.7313076355426250  0.5000000000000000  0.1881851453077687
  0.6162236987952416  0.0000000000000000  0.8546248483585271
  0.4014542338494337  0.0000000000000000  0.1154611001019665
  0.1096133855267585  0.5000000000000000  0.8538029944776092
  0.8967663616522331  0.5000000000000000  0.1526900032199571
  0.9109725468575368  0.0000000000000000  0.8402010263789156
  0.0775826423357000  0.0000000000000000  0.0943659467178378
  0.4350733210546258  0.5000000000000000  0.8902888697755706
  0.5778326238006412  0.5000000000000000  0.1061854218838081
  0.2462641652213506  0.0000000000000000  0.8805443037684429
  0.7611325964861740  0.0000000000000000  0.1265095382964685
  0.7413226322501701  0.5000000000000000  0.8971127301713718
  0.2646661472888026  0.5000000000000000  0.0991653247025780
  0.0857915160409663  0.0000000000000000  0.6360494982382834
  0.9347698758230366  0.0000000000000000  0.3774163421641986
  0.5810072780208730  0.5000000000000000  0.6523091570009543
  0.4164773362332543  0.5000000000000000  0.3297386955953560
  0.2234486665536477  0.0000000000000000  0.3409703355551941
  0.2984634971126380  0.5000000000000000  0.6353595637391657
  0.7011755021615889  0.5000000000000000  0.3697045917402434
 
  0.00000000E+00  0.00000000E+00  0.00000000E+00
  0.00000000E+00  0.00000000E+00  0.00000000E+00
  0.00000000E+00  0.00000000E+00  0.00000000E+00
  0.00000000E+00  0.00000000E+00  0.00000000E+00
  0.00000000E+00  0.00000000E+00  0.00000000E+00
  0.00000000E+00  0.00000000E+00  0.00000000E+00
  0.00000000E+00  0.00000000E+00  0.00000000E+00
  0.00000000E+00  0.00000000E+00  0.00000000E+00
  0.00000000E+00  0.00000000E+00  0.00000000E+00
  0.00000000E+00  0.00000000E+00  0.00000000E+00
  0.00000000E+00  0.00000000E+00  0.00000000E+00
  0.00000000E+00  0.00000000E+00  0.00000000E+00
  0.00000000E+00  0.00000000E+00  0.00000000E+00
  0.00000000E+00  0.00000000E+00  0.00000000E+00
  0.00000000E+00  0.00000000E+00  0.00000000E+00
  0.00000000E+00  0.00000000E+00  0.00000000E+00
  0.00000000E+00  0.00000000E+00  0.00000000E+00
  0.00000000E+00  0.00000000E+00  0.00000000E+00
  0.00000000E+00  0.00000000E+00  0.00000000E+00
  0.00000000E+00  0.00000000E+00  0.00000000E+00
  0.00000000E+00  0.00000000E+00  0.00000000E+00
  0.00000000E+00  0.00000000E+00  0.00000000E+00
  0.00000000E+00  0.00000000E+00  0.00000000E+00
  0.00000000E+00  0.00000000E+00  0.00000000E+00
  0.00000000E+00  0.00000000E+00  0.00000000E+00
  0.00000000E+00  0.00000000E+00  0.00000000E+00
  0.00000000E+00  0.00000000E+00  0.00000000E+00
  0.00000000E+00  0.00000000E+00  0.00000000E+00
  0.00000000E+00  0.00000000E+00  0.00000000E+00
  0.00000000E+00  0.00000000E+00  0.00000000E+00
