Na2 Mn48 Co48 S2                        
   1.00000000000000     
     9.9475087679858625    0.0000000000000000   -0.0642715153651900
     4.9334962509818583    8.6928626692229010   -0.1434234665729407
     0.0000000000000000    0.0000000000000000   24.4783711218720370
   Na   Mn   Co   S 
     2    48    48     2
Selective dynamics
Direct
  0.9007445059723755  0.7002516658850576  0.8112017634886460   T   T   T
  0.9057353633476546  0.2419403510799093  0.8111936644596605   T   T   T
  0.1251009893290203  0.3747980213419595  0.3750504946645137   F   F   F
  0.1251009893290203  0.8747980213419595  0.3750504946645137   F   F   F
  0.6251009893290203  0.3747980213419595  0.3750504946645137   F   F   F
  0.6251009893290203  0.8747980213419595  0.3750504946645137   F   F   F
  0.2917676559956845  0.0414646880086238  0.4583838279978423   F   F   F
  0.2917676559956845  0.5414646880086238  0.4583838279978423   F   F   F
  0.7917676559956845  0.0414646880086238  0.4583838279978423   F   F   F
  0.7917676559956845  0.5414646880086238  0.4583838279978423   F   F   F
  0.4584343226623560  0.2081313546752881  0.2917171613311780   F   F   F
  0.4584343226623560  0.7081313546752881  0.2917171613311780   F   F   F
  0.9584343226623560  0.2081313546752881  0.2917171613311780   F   F   F
  0.9584343226623560  0.7081313546752881  0.2917171613311780   F   F   F
  0.3748990106709797  0.1252019786580405  0.3749495053354863   F   F   F
  0.3748990106709797  0.6252019786580405  0.3749495053354863   F   F   F
  0.8748990106709797  0.1252019786580405  0.3749495053354863   F   F   F
  0.8748990106709797  0.6252019786580405  0.3749495053354863   F   F   F
  0.0415656773376440  0.2918686453247119  0.4582828386688220   F   F   F
  0.0415656773376440  0.7918686453247119  0.4582828386688220   F   F   F
  0.5415656773376440  0.2918686453247119  0.4582828386688220   F   F   F
  0.5415656773376440  0.7918686453247119  0.4582828386688220   F   F   F
  0.2082323440043155  0.4585353119913762  0.2916161720021577   F   F   F
  0.2082323440043155  0.9585353119913762  0.2916161720021577   F   F   F
  0.7082323440043155  0.4585353119913762  0.2916161720021577   F   F   F
  0.7082323440043155  0.9585353119913762  0.2916161720021577   F   F   F
  0.1291561963086888  0.3788019239509876  0.6238253903107227   T   T   T
  0.1317275952908057  0.8758902127231633  0.6242076876193102   T   T   T
  0.6229982111661476  0.3856545636585287  0.6245651339695530   T   T   T
  0.6273747187665967  0.8789403626241545  0.6225405508737526   T   T   T
  0.2928944172391946  0.0431310825872400  0.7121776441819371   T   T   T
  0.2921131082163210  0.5459778044269032  0.7119284264552427   T   T   T
  0.7965249297923848  0.0413578076731373  0.7100070964260197   T   T   T
  0.7955346562636052  0.5437426901330256  0.7114653455769340   T   T   T
  0.4584343226623560  0.2081313546752881  0.5417171613311780   F   F   F
  0.4584343226623560  0.7081313546752881  0.5417171613311780   F   F   F
  0.9584343226623560  0.2081313546752881  0.5417171613311780   F   F   F
  0.9584343226623560  0.7081313546752881  0.5417171613311780   F   F   F
  0.3767233085481963  0.1315115567154545  0.6229735184216626   T   T   T
  0.3812524790677046  0.6272006993028481  0.6246597703738500   T   T   T
  0.8788397631326855  0.1261538403393329  0.6241575325018219   T   T   T
  0.8810561845038688  0.6259811050231008  0.6233899200224947   T   T   T
  0.0396639721383967  0.2933165394496650  0.7069125009556376   T   T   T
  0.0413563864914859  0.7961436750117785  0.7075596882755675   T   T   T
  0.5441943199426121  0.2912751335920758  0.7096310433081648   T   T   T
  0.5506826728767408  0.7913671297595346  0.7141854577629883   T   T   T
  0.2082323440043155  0.4585353119913762  0.5416161720021577   F   F   F
  0.2082323440043155  0.9585353119913762  0.5416161720021577   F   F   F
  0.7082323440043155  0.4585353119913762  0.5416161720021577   F   F   F
  0.7082323440043155  0.9585353119913762  0.5416161720021577   F   F   F
  0.4583946692454859  0.4582106615090282  0.2916973346227394   F   F   F
  0.4583946692454859  0.9582106615090282  0.2916973346227394   F   F   F
  0.9583946692454859  0.4582106615090282  0.2916973346227394   F   F   F
  0.9583946692454859  0.9582106615090282  0.2916973346227394   F   F   F
  0.1250613359121502  0.1248773281756925  0.3750306679560751   F   F   F
  0.1250613359121502  0.6248773281756925  0.3750306679560751   F   F   F
  0.6250613359121502  0.1248773281756925  0.3750306679560751   F   F   F
  0.6250613359121502  0.6248773281756925  0.3750306679560751   F   F   F
  0.2917280025788216  0.2915439948423639  0.4583640012894108   F   F   F
  0.2917280025788216  0.7915439948423639  0.4583640012894108   F   F   F
  0.7917280025788216  0.2915439948423639  0.4583640012894108   F   F   F
  0.7917280025788216  0.7915439948423639  0.4583640012894108   F   F   F
  0.3749386640878498  0.3751226718243075  0.3749693320439249   F   F   F
  0.3749386640878498  0.8751226718243075  0.3749693320439249   F   F   F
  0.8749386640878498  0.3751226718243075  0.3749693320439249   F   F   F
  0.8749386640878498  0.8751226718243075  0.3749693320439249   F   F   F
  0.0416053307545141  0.0417893384909718  0.4583026653772535   F   F   F
  0.0416053307545141  0.5417893384909718  0.4583026653772535   F   F   F
  0.5416053307545141  0.0417893384909718  0.4583026653772535   F   F   F
  0.5416053307545141  0.5417893384909718  0.4583026653772535   F   F   F
  0.2082719974211784  0.2084560051576361  0.2916359987105892   F   F   F
  0.2082719974211784  0.7084560051576361  0.2916359987105892   F   F   F
  0.7082719974211784  0.2084560051576361  0.2916359987105892   F   F   F
  0.7082719974211784  0.7084560051576361  0.2916359987105892   F   F   F
  0.4583946692454859  0.4582106615090282  0.5416973346227394   F   F   F
  0.4583946692454859  0.9582106615090282  0.5416973346227394   F   F   F
  0.9583946692454859  0.4582106615090282  0.5416973346227394   F   F   F
  0.9583946692454859  0.9582106615090282  0.5416973346227394   F   F   F
  0.1287823961315268  0.1279833013924716  0.6242774639145345   T   T   T
  0.1267070326457522  0.6273463531216580  0.6236208525916994   T   T   T
  0.6281257294651741  0.1279155290089617  0.6225712420129668   T   T   T
  0.6274694362057647  0.6276383976942577  0.6240824756334582   T   T   T
  0.2934887577029171  0.2941534986503069  0.7059521447285373   T   T   T
  0.2899835454401982  0.7956679352542186  0.7040903163941343   T   T   T
  0.7923810185322543  0.2908084340930643  0.7020315348737047   T   T   T
  0.7926382684662914  0.7960404408128456  0.7017036473760725   T   T   T
  0.3770992415038206  0.3763388931675860  0.6232881486198427   T   T   T
  0.3793038825326807  0.8776734801107828  0.6241842252109038   T   T   T
  0.8762424694736235  0.3798910324757689  0.6239071612875042   T   T   T
  0.8783824452579644  0.8779089952425875  0.6219285867910689   T   T   T
  0.0414249470629973  0.0442183737287848  0.7042908931711849   T   T   T
  0.0441506251967694  0.5439677658986478  0.7061791752430501   T   T   T
  0.5434000522733959  0.0401553418935244  0.7031584010999203   T   T   T
  0.5428135657904616  0.5412982304751310  0.7075266754625832   T   T   T
  0.2082719974211784  0.2084560051576361  0.5416359987105892   F   F   F
  0.2082719974211784  0.7084560051576361  0.5416359987105892   F   F   F
  0.7082719974211784  0.2084560051576361  0.5416359987105892   F   F   F
  0.7082719974211784  0.7084560051576361  0.5416359987105892   F   F   F
  0.1296483350751047  0.3799062586025821  0.7762630963590001   T   T   T
  0.6246605626252464  0.6152817874966259  0.7822636722499090   T   T   T
 
  0.00000000E+00  0.00000000E+00  0.00000000E+00
  0.00000000E+00  0.00000000E+00  0.00000000E+00
  0.00000000E+00  0.00000000E+00  0.00000000E+00
  0.00000000E+00  0.00000000E+00  0.00000000E+00
  0.00000000E+00  0.00000000E+00  0.00000000E+00
  0.00000000E+00  0.00000000E+00  0.00000000E+00
  0.00000000E+00  0.00000000E+00  0.00000000E+00
  0.00000000E+00  0.00000000E+00  0.00000000E+00
  0.00000000E+00  0.00000000E+00  0.00000000E+00
  0.00000000E+00  0.00000000E+00  0.00000000E+00
  0.00000000E+00  0.00000000E+00  0.00000000E+00
  0.00000000E+00  0.00000000E+00  0.00000000E+00
  0.00000000E+00  0.00000000E+00  0.00000000E+00
  0.00000000E+00  0.00000000E+00  0.00000000E+00
  0.00000000E+00  0.00000000E+00  0.00000000E+00
  0.00000000E+00  0.00000000E+00  0.00000000E+00
  0.00000000E+00  0.00000000E+00  0.00000000E+00
  0.00000000E+00  0.00000000E+00  0.00000000E+00
  0.00000000E+00  0.00000000E+00  0.00000000E+00
  0.00000000E+00  0.00000000E+00  0.00000000E+00
  0.00000000E+00  0.00000000E+00  0.00000000E+00
  0.00000000E+00  0.00000000E+00  0.00000000E+00
  0.00000000E+00  0.00000000E+00  0.00000000E+00
  0.00000000E+00  0.00000000E+00  0.00000000E+00
  0.00000000E+00  0.00000000E+00  0.00000000E+00
  0.00000000E+00  0.00000000E+00  0.00000000E+00
  0.00000000E+00  0.00000000E+00  0.00000000E+00
  0.00000000E+00  0.00000000E+00  0.00000000E+00
  0.00000000E+00  0.00000000E+00  0.00000000E+00
  0.00000000E+00  0.00000000E+00  0.00000000E+00
  0.00000000E+00  0.00000000E+00  0.00000000E+00
  0.00000000E+00  0.00000000E+00  0.00000000E+00
  0.00000000E+00  0.00000000E+00  0.00000000E+00
  0.00000000E+00  0.00000000E+00  0.00000000E+00
  0.00000000E+00  0.00000000E+00  0.00000000E+00
  0.00000000E+00  0.00000000E+00  0.00000000E+00
  0.00000000E+00  0.00000000E+00  0.00000000E+00
  0.00000000E+00  0.00000000E+00  0.00000000E+00
  0.00000000E+00  0.00000000E+00  0.00000000E+00
  0.00000000E+00  0.00000000E+00  0.00000000E+00
  0.00000000E+00  0.00000000E+00  0.00000000E+00
  0.00000000E+00  0.00000000E+00  0.00000000E+00
  0.00000000E+00  0.00000000E+00  0.00000000E+00
  0.00000000E+00  0.00000000E+00  0.00000000E+00
  0.00000000E+00  0.00000000E+00  0.00000000E+00
  0.00000000E+00  0.00000000E+00  0.00000000E+00
  0.00000000E+00  0.00000000E+00  0.00000000E+00
  0.00000000E+00  0.00000000E+00  0.00000000E+00
  0.00000000E+00  0.00000000E+00  0.00000000E+00
  0.00000000E+00  0.00000000E+00  0.00000000E+00
  0.00000000E+00  0.00000000E+00  0.00000000E+00
  0.00000000E+00  0.00000000E+00  0.00000000E+00
  0.00000000E+00  0.00000000E+00  0.00000000E+00
  0.00000000E+00  0.00000000E+00  0.00000000E+00
  0.00000000E+00  0.00000000E+00  0.00000000E+00
  0.00000000E+00  0.00000000E+00  0.00000000E+00
  0.00000000E+00  0.00000000E+00  0.00000000E+00
  0.00000000E+00  0.00000000E+00  0.00000000E+00
  0.00000000E+00  0.00000000E+00  0.00000000E+00
  0.00000000E+00  0.00000000E+00  0.00000000E+00
  0.00000000E+00  0.00000000E+00  0.00000000E+00
  0.00000000E+00  0.00000000E+00  0.00000000E+00
  0.00000000E+00  0.00000000E+00  0.00000000E+00
  0.00000000E+00  0.00000000E+00  0.00000000E+00
  0.00000000E+00  0.00000000E+00  0.00000000E+00
  0.00000000E+00  0.00000000E+00  0.00000000E+00
  0.00000000E+00  0.00000000E+00  0.00000000E+00
  0.00000000E+00  0.00000000E+00  0.00000000E+00
  0.00000000E+00  0.00000000E+00  0.00000000E+00
  0.00000000E+00  0.00000000E+00  0.00000000E+00
  0.00000000E+00  0.00000000E+00  0.00000000E+00
  0.00000000E+00  0.00000000E+00  0.00000000E+00
  0.00000000E+00  0.00000000E+00  0.00000000E+00
  0.00000000E+00  0.00000000E+00  0.00000000E+00
  0.00000000E+00  0.00000000E+00  0.00000000E+00
  0.00000000E+00  0.00000000E+00  0.00000000E+00
  0.00000000E+00  0.00000000E+00  0.00000000E+00
  0.00000000E+00  0.00000000E+00  0.00000000E+00
  0.00000000E+00  0.00000000E+00  0.00000000E+00
  0.00000000E+00  0.00000000E+00  0.00000000E+00
  0.00000000E+00  0.00000000E+00  0.00000000E+00
  0.00000000E+00  0.00000000E+00  0.00000000E+00
  0.00000000E+00  0.00000000E+00  0.00000000E+00
  0.00000000E+00  0.00000000E+00  0.00000000E+00
  0.00000000E+00  0.00000000E+00  0.00000000E+00
  0.00000000E+00  0.00000000E+00  0.00000000E+00
  0.00000000E+00  0.00000000E+00  0.00000000E+00
  0.00000000E+00  0.00000000E+00  0.00000000E+00
  0.00000000E+00  0.00000000E+00  0.00000000E+00
  0.00000000E+00  0.00000000E+00  0.00000000E+00
  0.00000000E+00  0.00000000E+00  0.00000000E+00
  0.00000000E+00  0.00000000E+00  0.00000000E+00
  0.00000000E+00  0.00000000E+00  0.00000000E+00
  0.00000000E+00  0.00000000E+00  0.00000000E+00
  0.00000000E+00  0.00000000E+00  0.00000000E+00
  0.00000000E+00  0.00000000E+00  0.00000000E+00
  0.00000000E+00  0.00000000E+00  0.00000000E+00
  0.00000000E+00  0.00000000E+00  0.00000000E+00
  0.00000000E+00  0.00000000E+00  0.00000000E+00
  0.00000000E+00  0.00000000E+00  0.00000000E+00
