K2 V8 Zn1 O20                           
    1.000000000000000     
    11.9149585160130709    0.0000000000000000   -0.2083942687536068
     0.0000000000000000    3.7447019473599195    0.0000000000000000
     0.1193286075779601    0.0000000000000000    8.9727233751906663
   Zn   K    V    O 
     1     2     8    20
Direct
  0.2195451447315535  0.0000000000000000  0.5623551528419423
  0.5767798178215258  0.0000000000000000  0.4585702337407456
  0.9138390565668910  0.5000000000000000  0.5405678633236577
  0.0715930106206729  0.0000000000000000  0.8471273526492027
  0.9320611582185959  0.0000000000000000  0.1532693306491369
  0.5668664994375340  0.5000000000000000  0.8477512588009581
  0.4341408265210960  0.5000000000000000  0.1576186881437455
  0.7693153930060997  0.0000000000000000  0.8418592518417068
  0.2323071240942960  0.0000000000000000  0.1632763738153241
  0.2669833663932489  0.5000000000000000  0.8488551067223504
  0.7354811715300169  0.5000000000000000  0.1621340292299868
  0.6043507367261367  0.0000000000000000  0.8745253138337177
  0.3970377362379649  0.0000000000000000  0.1331446194029048
  0.1046967907788195  0.5000000000000000  0.8724845317206910
  0.8997211784549074  0.5000000000000000  0.1263655382763698
  0.9131110668625935  0.0000000000000000  0.8896832794014123
  0.0749951056717306  0.0000000000000000  0.0887575605574096
  0.4256869089580566  0.5000000000000000  0.9014617201344060
  0.5757225613819329  0.5000000000000000  0.1105260388656185
  0.2410582269273424  0.0000000000000000  0.8874707027059344
  0.7641262323128463  0.0000000000000000  0.1104904314915410
  0.7376560638341377  0.5000000000000000  0.8845896161061504
  0.2635888656826653  0.5000000000000000  0.1027480259832311
  0.0701145478779323  0.0000000000000000  0.6527690386532600
  0.9473167570819813  0.0000000000000000  0.3347605543366489
  0.5570566872822562  0.5000000000000000  0.6662902070280837
  0.4363706023908870  0.5000000000000000  0.3412355468329882
  0.7735118947519377  0.0000000000000000  0.6582775627893863
  0.2146077092657124  0.0000000000000000  0.3497988010267171
  0.2717482297896539  0.5000000000000000  0.6502405050732915
  0.7228952430746911  0.5000000000000000  0.3458105788362982
 
  0.00000000E+00  0.00000000E+00  0.00000000E+00
  0.00000000E+00  0.00000000E+00  0.00000000E+00
  0.00000000E+00  0.00000000E+00  0.00000000E+00
  0.00000000E+00  0.00000000E+00  0.00000000E+00
  0.00000000E+00  0.00000000E+00  0.00000000E+00
  0.00000000E+00  0.00000000E+00  0.00000000E+00
  0.00000000E+00  0.00000000E+00  0.00000000E+00
  0.00000000E+00  0.00000000E+00  0.00000000E+00
  0.00000000E+00  0.00000000E+00  0.00000000E+00
  0.00000000E+00  0.00000000E+00  0.00000000E+00
  0.00000000E+00  0.00000000E+00  0.00000000E+00
  0.00000000E+00  0.00000000E+00  0.00000000E+00
  0.00000000E+00  0.00000000E+00  0.00000000E+00
  0.00000000E+00  0.00000000E+00  0.00000000E+00
  0.00000000E+00  0.00000000E+00  0.00000000E+00
  0.00000000E+00  0.00000000E+00  0.00000000E+00
  0.00000000E+00  0.00000000E+00  0.00000000E+00
  0.00000000E+00  0.00000000E+00  0.00000000E+00
  0.00000000E+00  0.00000000E+00  0.00000000E+00
  0.00000000E+00  0.00000000E+00  0.00000000E+00
  0.00000000E+00  0.00000000E+00  0.00000000E+00
  0.00000000E+00  0.00000000E+00  0.00000000E+00
  0.00000000E+00  0.00000000E+00  0.00000000E+00
  0.00000000E+00  0.00000000E+00  0.00000000E+00
  0.00000000E+00  0.00000000E+00  0.00000000E+00
  0.00000000E+00  0.00000000E+00  0.00000000E+00
  0.00000000E+00  0.00000000E+00  0.00000000E+00
  0.00000000E+00  0.00000000E+00  0.00000000E+00
  0.00000000E+00  0.00000000E+00  0.00000000E+00
  0.00000000E+00  0.00000000E+00  0.00000000E+00
  0.00000000E+00  0.00000000E+00  0.00000000E+00
