K2 V8 Zn1 O19                           
    1.000000000000000     
    11.8654779999999995    0.0000000000000000   -0.0247010000000000
     0.0000000000000000    3.7326980000000001    0.0000000000000000
     0.0000000000000000    0.0000000000000000    9.3174469999999996
   Zn   K    V    O 
     1     2     8    19
Direct
  0.7916763042924062  0.0000000000000000  0.4214826188257291
  0.4042612217928836  0.0000000000000000  0.5360122409792356
  0.1053696499213245  0.5000000000000000  0.4664667614323588
  0.0570814025809607  0.0000000000000000  0.8236962521678144
  0.9351173115753632  0.0000000000000000  0.1549034820028440
  0.5640465268289415  0.5000000000000000  0.8173637091348004
  0.4222277777895521  0.5000000000000000  0.1691550785659687
  0.7546206378837312  0.0000000000000000  0.9256283478893006
  0.2301403273928085  0.0000000000000000  0.1288738377499279
  0.2564950506315541  0.5000000000000000  0.8392774931136258
  0.7243408190908988  0.5000000000000000  0.1789136009139403
  0.6090158553478466  0.0000000000000000  0.8346048868539314
  0.3973356175780714  0.0000000000000000  0.1265345852373643
  0.0907397115350520  0.5000000000000000  0.8578091153498770
  0.8947654026948980  0.5000000000000000  0.1327490876860326
  0.8942775080544351  0.0000000000000000  0.8828132418721830
  0.0654419297043870  0.0000000000000000  0.0813712319275712
  0.4311767426488836  0.5000000000000000  0.8836786445108891
  0.5692091933836050  0.5000000000000000  0.1594721073516558
  0.2254112894869394  0.0000000000000000  0.8841770757657225
  0.7574078703535053  0.0000000000000000  0.1353339239562441
  0.7118504069792446  0.5000000000000000  0.9393077251689703
  0.2642126984921070  0.5000000000000000  0.0823391067641480
  0.0335671165521938  0.0000000000000000  0.6485003395898248
  0.9490726464396825  0.0000000000000000  0.3358565218232005
  0.5565991367416986  0.5000000000000000  0.6419944841237866
  0.3997823068114790  0.5000000000000000  0.3415077331727801
  0.2046300319668519  0.0000000000000000  0.3031739116645699
  0.2778731927024349  0.5000000000000000  0.6625354760737935
  0.7504201698891063  0.5000000000000000  0.3888200820356029
 
  0.00000000E+00  0.00000000E+00  0.00000000E+00
  0.00000000E+00  0.00000000E+00  0.00000000E+00
  0.00000000E+00  0.00000000E+00  0.00000000E+00
  0.00000000E+00  0.00000000E+00  0.00000000E+00
  0.00000000E+00  0.00000000E+00  0.00000000E+00
  0.00000000E+00  0.00000000E+00  0.00000000E+00
  0.00000000E+00  0.00000000E+00  0.00000000E+00
  0.00000000E+00  0.00000000E+00  0.00000000E+00
  0.00000000E+00  0.00000000E+00  0.00000000E+00
  0.00000000E+00  0.00000000E+00  0.00000000E+00
  0.00000000E+00  0.00000000E+00  0.00000000E+00
  0.00000000E+00  0.00000000E+00  0.00000000E+00
  0.00000000E+00  0.00000000E+00  0.00000000E+00
  0.00000000E+00  0.00000000E+00  0.00000000E+00
  0.00000000E+00  0.00000000E+00  0.00000000E+00
  0.00000000E+00  0.00000000E+00  0.00000000E+00
  0.00000000E+00  0.00000000E+00  0.00000000E+00
  0.00000000E+00  0.00000000E+00  0.00000000E+00
  0.00000000E+00  0.00000000E+00  0.00000000E+00
  0.00000000E+00  0.00000000E+00  0.00000000E+00
  0.00000000E+00  0.00000000E+00  0.00000000E+00
  0.00000000E+00  0.00000000E+00  0.00000000E+00
  0.00000000E+00  0.00000000E+00  0.00000000E+00
  0.00000000E+00  0.00000000E+00  0.00000000E+00
  0.00000000E+00  0.00000000E+00  0.00000000E+00
  0.00000000E+00  0.00000000E+00  0.00000000E+00
  0.00000000E+00  0.00000000E+00  0.00000000E+00
  0.00000000E+00  0.00000000E+00  0.00000000E+00
  0.00000000E+00  0.00000000E+00  0.00000000E+00
  0.00000000E+00  0.00000000E+00  0.00000000E+00
