Na2 Ti64 Cu64 S2                        
   1.00000000000000     
    12.5468749601132661    0.0000000000000000   -0.0023845427473836
     6.2718613598715018    8.6718031553237864    0.3861000546476283
     0.0000000000000000    0.0000000000000000   34.7217897683016261
   Na   Ti   Cu   S 
     2    64    64     2
Selective dynamics
Direct
  0.3385708885217297  0.2978939964214574  0.7921591712875220   T   T   T
  0.5098695868839744  0.6671007146552049  0.7991356113699967   T   T   T
  0.3164425933806569  0.2395664277010923  0.3457212966903285   F   F   F
  0.8164425933806569  0.2395664277010923  0.3457212966903285   F   F   F
  0.4414425933806569  0.4895664277010923  0.4082212966903285   F   F   F
  0.9414425933806569  0.4895664277010923  0.4082212966903285   F   F   F
  0.0664425933806569  0.7395664277010923  0.4707212966903285   F   F   F
  0.5664425933806569  0.7395664277010923  0.4707212966903285   F   F   F
  0.1914425933806569  0.9895664277010923  0.2832212966903285   F   F   F
  0.6914425933806569  0.9895664277010923  0.2832212966903285   F   F   F
  0.0572832138505461  0.0078851867613068  0.4661416069252695   F   F   F
  0.5572832138505461  0.0078851867613068  0.4661416069252695   F   F   F
  0.1822832138505461  0.2578851867613068  0.2786416069252695   F   F   F
  0.6822832138505461  0.2578851867613068  0.2786416069252695   F   F   F
  0.3072832138505461  0.5078851867613068  0.3411416069252695   F   F   F
  0.8072832138505461  0.5078851867613068  0.3411416069252695   F   F   F
  0.4322832138505461  0.7578851867613068  0.4036416069252695   F   F   F
  0.9322832138505461  0.7578851867613068  0.4036416069252695   F   F   F
  0.4427167861494539  0.9921148132386861  0.2838583930747305   F   F   F
  0.9427167861494539  0.9921148132386861  0.2838583930747305   F   F   F
  0.0677167861494539  0.2421148132386861  0.3463583930747305   F   F   F
  0.5677167861494539  0.2421148132386861  0.3463583930747305   F   F   F
  0.1927167861494539  0.4921148132386861  0.4088583930747305   F   F   F
  0.6927167861494539  0.4921148132386861  0.4088583930747305   F   F   F
  0.3177167861494539  0.7421148132386861  0.4713583930747305   F   F   F
  0.8177167861494539  0.7421148132386861  0.4713583930747305   F   F   F
  0.1835574066193431  0.7604335722989077  0.4042787033096715   F   F   F
  0.6835574066193431  0.7604335722989077  0.4042787033096715   F   F   F
  0.3085574066193431  0.0104335722989077  0.4667787033096715   F   F   F
  0.8085574066193431  0.0104335722989077  0.4667787033096715   F   F   F
  0.4335574066193431  0.2604335722989077  0.2792787033096715   F   F   F
  0.9335574066193431  0.2604335722989077  0.2792787033096715   F   F   F
  0.0585574066193431  0.5104335722989077  0.3417787033096715   F   F   F
  0.5585574066193431  0.5104335722989077  0.3417787033096715   F   F   F
  0.3164425933806569  0.2395664277010923  0.5957212966903285   F   F   F
  0.8164425933806569  0.2395664277010923  0.5957212966903285   F   F   F
  0.4409863184915536  0.4948458829042988  0.6592258126003926   T   T   T
  0.9417175754701209  0.4921602718030091  0.6598696877046568   T   T   T
  0.0656948214795615  0.7358496027985180  0.7187515646711192   T   T   T
  0.5678489327761331  0.7362348636057250  0.7173425253042983   T   T   T
  0.1914425933806569  0.9895664277010923  0.5332212966903285   F   F   F
  0.6914425933806569  0.9895664277010923  0.5332212966903285   F   F   F
  0.0493766138459137  0.0091229749484666  0.7163949286364483   T   T   T
  0.5591768549531768  0.0047781398698489  0.7195399672475919   T   T   T
  0.1822832138505461  0.2578851867613068  0.5286416069252695   F   F   F
  0.6822832138505461  0.2578851867613068  0.5286416069252695   F   F   F
  0.3072832138505461  0.5078851867613068  0.5911416069252695   F   F   F
  0.8072832138505461  0.5078851867613068  0.5911416069252695   F   F   F
  0.4292762951757789  0.7637192151111047  0.6517326098021968   T   T   T
  0.9296833069546709  0.7623631602724289  0.6525344734907893   T   T   T
  0.4427167861494539  0.9921148132386861  0.5338583930747305   F   F   F
  0.9427167861494539  0.9921148132386861  0.5338583930747305   F   F   F
  0.0677167861494539  0.2421148132386861  0.5963583930747305   F   F   F
  0.5677167861494539  0.2421148132386861  0.5963583930747305   F   F   F
  0.1893174290309659  0.4964323204995281  0.6595653789670564   T   T   T
  0.6889543069469722  0.4945973929158514  0.6597588893771464   T   T   T
  0.3225489066605697  0.7341431971215701  0.7195537924246420   T   T   T
  0.8238373064967756  0.7358701321369175  0.7210359309153184   T   T   T
  0.1817291496579091  0.7631280323456743  0.6538213796611592   T   T   T
  0.6840176497793535  0.7614467228844473  0.6534313250207051   T   T   T
  0.3160115557961907  0.0071656323027817  0.7172117864656870   T   T   T
  0.8102514893131826  0.0047380500642879  0.7144534102587580   T   T   T
  0.4335574066193431  0.2604335722989077  0.5292787033096715   F   F   F
  0.9335574066193431  0.2604335722989077  0.5292787033096715   F   F   F
  0.0585574066193431  0.5104335722989077  0.5917787033096715   F   F   F
  0.5585574066193431  0.5104335722989077  0.5917787033096715   F   F   F
  0.4397259614144460  0.2396631623782639  0.4073629807072265   F   F   F
  0.9397259614144460  0.2396631623782639  0.4073629807072265   F   F   F
  0.0647259614144460  0.4896631623782639  0.4698629807072265   F   F   F
  0.5647259614144460  0.4896631623782639  0.4698629807072265   F   F   F
  0.1897259614144460  0.7396631623782639  0.2823629807072265   F   F   F
  0.6897259614144460  0.7396631623782639  0.2823629807072265   F   F   F
  0.3147259614144460  0.9896631623782639  0.3448629807072265   F   F   F
  0.8147259614144460  0.9896631623782639  0.3448629807072265   F   F   F
  0.4323315811891320  0.0044519228288920  0.4036657905945660   F   F   F
  0.9323315811891320  0.0044519228288920  0.4036657905945660   F   F   F
  0.0573315811891320  0.2544519228288920  0.4661657905945660   F   F   F
  0.5573315811891320  0.2544519228288920  0.4661657905945660   F   F   F
  0.1823315811891320  0.5044519228288920  0.2786657905945660   F   F   F
  0.6823315811891320  0.5044519228288920  0.2786657905945660   F   F   F
  0.3073315811891320  0.7544519228288920  0.3411657905945660   F   F   F
  0.8073315811891320  0.7544519228288920  0.3411657905945660   F   F   F
  0.0676684188108680  0.9955480771711080  0.3463342094054340   F   F   F
  0.5676684188108680  0.9955480771711080  0.3463342094054340   F   F   F
  0.1926684188108680  0.2455480771711080  0.4088342094054340   F   F   F
  0.6926684188108680  0.2455480771711080  0.4088342094054340   F   F   F
  0.3176684188108680  0.4955480771711080  0.4713342094054340   F   F   F
  0.8176684188108680  0.4955480771711080  0.4713342094054340   F   F   F
  0.4426684188108680  0.7455480771711080  0.2838342094054340   F   F   F
  0.9426684188108680  0.7455480771711080  0.2838342094054340   F   F   F
  0.0602740385855540  0.7603368376217361  0.3426370192927735   F   F   F
  0.5602740385855540  0.7603368376217361  0.3426370192927735   F   F   F
  0.1852740385855540  0.0103368376217361  0.4051370192927735   F   F   F
  0.6852740385855540  0.0103368376217361  0.4051370192927735   F   F   F
  0.3102740385855540  0.2603368376217361  0.4676370192927735   F   F   F
  0.8102740385855540  0.2603368376217361  0.4676370192927735   F   F   F
  0.4352740385855540  0.5103368376217361  0.2801370192927735   F   F   F
  0.9352740385855540  0.5103368376217361  0.2801370192927735   F   F   F
  0.4408917501640030  0.2433605324894948  0.6578965594069314   T   T   T
  0.9389790581239845  0.2402849447111192  0.6580737741024200   T   T   T
  0.0748403017214969  0.4779247065769616  0.7217524932279350   T   T   T
  0.5661454154460172  0.4869733506611443  0.7236267241674624   T   T   T
  0.1897259614144460  0.7396631623782639  0.5323629807072265   F   F   F
  0.6897259614144460  0.7396631623782639  0.5323629807072265   F   F   F
  0.3147259614144460  0.9896631623782639  0.5948629807072265   F   F   F
  0.8147259614144460  0.9896631623782639  0.5948629807072265   F   F   F
  0.4360975119862991  0.0060456519751436  0.6552422787907810   T   T   T
  0.9332020845528617  0.0057773070799788  0.6533845853903008   T   T   T
  0.0587363202935153  0.2558991807464928  0.7146423479045663   T   T   T
  0.5582177394739846  0.2568090546676206  0.7172548546479447   T   T   T
  0.1823315811891320  0.5044519228288920  0.5286657905945660   F   F   F
  0.6823315811891320  0.5044519228288920  0.5286657905945660   F   F   F
  0.3073315811891320  0.7544519228288920  0.5911657905945660   F   F   F
  0.8073315811891320  0.7544519228288920  0.5911657905945660   F   F   F
  0.0676684188108680  0.9955480771711080  0.5963342094054340   F   F   F
  0.5676684188108680  0.9955480771711080  0.5963342094054340   F   F   F
  0.1943680912057596  0.2421254020939212  0.6584828912678260   T   T   T
  0.6917889402629112  0.2424504400409079  0.6586312223895215   T   T   T
  0.3211404645132480  0.4848070565216047  0.7216155558965623   T   T   T
  0.8229287875224299  0.4798277368136712  0.7201698973161709   T   T   T
  0.4426684188108680  0.7455480771711080  0.5338342094054340   F   F   F
  0.9426684188108680  0.7455480771711080  0.5338342094054340   F   F   F
  0.0602740385855540  0.7603368376217361  0.5926370192927735   F   F   F
  0.5602740385855540  0.7603368376217361  0.5926370192927735   F   F   F
  0.1832665927445055  0.0100958704849864  0.6567779764228546   T   T   T
  0.6821680786993890  0.0087646619061709  0.6554888076342595   T   T   T
  0.3148938031665011  0.2525131819022892  0.7160687390489358   T   T   T
  0.8030707910397662  0.2599235873928185  0.7173244691003647   T   T   T
  0.4352740385855540  0.5103368376217361  0.5301370192927735   F   F   F
  0.9352740385855540  0.5103368376217361  0.5301370192927735   F   F   F
  0.6554391156982022  0.8061355243137728  0.7701798480647213   T   T   T
  0.2051912976259339 -0.0434932259971473  0.7657531227844266   T   T   T
 
  0.00000000E+00  0.00000000E+00  0.00000000E+00
  0.00000000E+00  0.00000000E+00  0.00000000E+00
  0.00000000E+00  0.00000000E+00  0.00000000E+00
  0.00000000E+00  0.00000000E+00  0.00000000E+00
  0.00000000E+00  0.00000000E+00  0.00000000E+00
  0.00000000E+00  0.00000000E+00  0.00000000E+00
  0.00000000E+00  0.00000000E+00  0.00000000E+00
  0.00000000E+00  0.00000000E+00  0.00000000E+00
  0.00000000E+00  0.00000000E+00  0.00000000E+00
  0.00000000E+00  0.00000000E+00  0.00000000E+00
  0.00000000E+00  0.00000000E+00  0.00000000E+00
  0.00000000E+00  0.00000000E+00  0.00000000E+00
  0.00000000E+00  0.00000000E+00  0.00000000E+00
  0.00000000E+00  0.00000000E+00  0.00000000E+00
  0.00000000E+00  0.00000000E+00  0.00000000E+00
  0.00000000E+00  0.00000000E+00  0.00000000E+00
  0.00000000E+00  0.00000000E+00  0.00000000E+00
  0.00000000E+00  0.00000000E+00  0.00000000E+00
  0.00000000E+00  0.00000000E+00  0.00000000E+00
  0.00000000E+00  0.00000000E+00  0.00000000E+00
  0.00000000E+00  0.00000000E+00  0.00000000E+00
  0.00000000E+00  0.00000000E+00  0.00000000E+00
  0.00000000E+00  0.00000000E+00  0.00000000E+00
  0.00000000E+00  0.00000000E+00  0.00000000E+00
  0.00000000E+00  0.00000000E+00  0.00000000E+00
  0.00000000E+00  0.00000000E+00  0.00000000E+00
  0.00000000E+00  0.00000000E+00  0.00000000E+00
  0.00000000E+00  0.00000000E+00  0.00000000E+00
  0.00000000E+00  0.00000000E+00  0.00000000E+00
  0.00000000E+00  0.00000000E+00  0.00000000E+00
  0.00000000E+00  0.00000000E+00  0.00000000E+00
  0.00000000E+00  0.00000000E+00  0.00000000E+00
  0.00000000E+00  0.00000000E+00  0.00000000E+00
  0.00000000E+00  0.00000000E+00  0.00000000E+00
  0.00000000E+00  0.00000000E+00  0.00000000E+00
  0.00000000E+00  0.00000000E+00  0.00000000E+00
  0.00000000E+00  0.00000000E+00  0.00000000E+00
  0.00000000E+00  0.00000000E+00  0.00000000E+00
  0.00000000E+00  0.00000000E+00  0.00000000E+00
  0.00000000E+00  0.00000000E+00  0.00000000E+00
  0.00000000E+00  0.00000000E+00  0.00000000E+00
  0.00000000E+00  0.00000000E+00  0.00000000E+00
  0.00000000E+00  0.00000000E+00  0.00000000E+00
  0.00000000E+00  0.00000000E+00  0.00000000E+00
  0.00000000E+00  0.00000000E+00  0.00000000E+00
  0.00000000E+00  0.00000000E+00  0.00000000E+00
  0.00000000E+00  0.00000000E+00  0.00000000E+00
  0.00000000E+00  0.00000000E+00  0.00000000E+00
  0.00000000E+00  0.00000000E+00  0.00000000E+00
  0.00000000E+00  0.00000000E+00  0.00000000E+00
  0.00000000E+00  0.00000000E+00  0.00000000E+00
  0.00000000E+00  0.00000000E+00  0.00000000E+00
  0.00000000E+00  0.00000000E+00  0.00000000E+00
  0.00000000E+00  0.00000000E+00  0.00000000E+00
  0.00000000E+00  0.00000000E+00  0.00000000E+00
  0.00000000E+00  0.00000000E+00  0.00000000E+00
  0.00000000E+00  0.00000000E+00  0.00000000E+00
  0.00000000E+00  0.00000000E+00  0.00000000E+00
  0.00000000E+00  0.00000000E+00  0.00000000E+00
  0.00000000E+00  0.00000000E+00  0.00000000E+00
  0.00000000E+00  0.00000000E+00  0.00000000E+00
  0.00000000E+00  0.00000000E+00  0.00000000E+00
  0.00000000E+00  0.00000000E+00  0.00000000E+00
  0.00000000E+00  0.00000000E+00  0.00000000E+00
  0.00000000E+00  0.00000000E+00  0.00000000E+00
  0.00000000E+00  0.00000000E+00  0.00000000E+00
  0.00000000E+00  0.00000000E+00  0.00000000E+00
  0.00000000E+00  0.00000000E+00  0.00000000E+00
  0.00000000E+00  0.00000000E+00  0.00000000E+00
  0.00000000E+00  0.00000000E+00  0.00000000E+00
  0.00000000E+00  0.00000000E+00  0.00000000E+00
  0.00000000E+00  0.00000000E+00  0.00000000E+00
  0.00000000E+00  0.00000000E+00  0.00000000E+00
  0.00000000E+00  0.00000000E+00  0.00000000E+00
  0.00000000E+00  0.00000000E+00  0.00000000E+00
  0.00000000E+00  0.00000000E+00  0.00000000E+00
  0.00000000E+00  0.00000000E+00  0.00000000E+00
  0.00000000E+00  0.00000000E+00  0.00000000E+00
  0.00000000E+00  0.00000000E+00  0.00000000E+00
  0.00000000E+00  0.00000000E+00  0.00000000E+00
  0.00000000E+00  0.00000000E+00  0.00000000E+00
  0.00000000E+00  0.00000000E+00  0.00000000E+00
  0.00000000E+00  0.00000000E+00  0.00000000E+00
  0.00000000E+00  0.00000000E+00  0.00000000E+00
  0.00000000E+00  0.00000000E+00  0.00000000E+00
  0.00000000E+00  0.00000000E+00  0.00000000E+00
  0.00000000E+00  0.00000000E+00  0.00000000E+00
  0.00000000E+00  0.00000000E+00  0.00000000E+00
  0.00000000E+00  0.00000000E+00  0.00000000E+00
  0.00000000E+00  0.00000000E+00  0.00000000E+00
  0.00000000E+00  0.00000000E+00  0.00000000E+00
  0.00000000E+00  0.00000000E+00  0.00000000E+00
  0.00000000E+00  0.00000000E+00  0.00000000E+00
  0.00000000E+00  0.00000000E+00  0.00000000E+00
  0.00000000E+00  0.00000000E+00  0.00000000E+00
  0.00000000E+00  0.00000000E+00  0.00000000E+00
  0.00000000E+00  0.00000000E+00  0.00000000E+00
  0.00000000E+00  0.00000000E+00  0.00000000E+00
  0.00000000E+00  0.00000000E+00  0.00000000E+00
  0.00000000E+00  0.00000000E+00  0.00000000E+00
  0.00000000E+00  0.00000000E+00  0.00000000E+00
  0.00000000E+00  0.00000000E+00  0.00000000E+00
  0.00000000E+00  0.00000000E+00  0.00000000E+00
  0.00000000E+00  0.00000000E+00  0.00000000E+00
  0.00000000E+00  0.00000000E+00  0.00000000E+00
  0.00000000E+00  0.00000000E+00  0.00000000E+00
  0.00000000E+00  0.00000000E+00  0.00000000E+00
  0.00000000E+00  0.00000000E+00  0.00000000E+00
  0.00000000E+00  0.00000000E+00  0.00000000E+00
  0.00000000E+00  0.00000000E+00  0.00000000E+00
  0.00000000E+00  0.00000000E+00  0.00000000E+00
  0.00000000E+00  0.00000000E+00  0.00000000E+00
  0.00000000E+00  0.00000000E+00  0.00000000E+00
  0.00000000E+00  0.00000000E+00  0.00000000E+00
  0.00000000E+00  0.00000000E+00  0.00000000E+00
  0.00000000E+00  0.00000000E+00  0.00000000E+00
  0.00000000E+00  0.00000000E+00  0.00000000E+00
  0.00000000E+00  0.00000000E+00  0.00000000E+00
  0.00000000E+00  0.00000000E+00  0.00000000E+00
  0.00000000E+00  0.00000000E+00  0.00000000E+00
  0.00000000E+00  0.00000000E+00  0.00000000E+00
  0.00000000E+00  0.00000000E+00  0.00000000E+00
  0.00000000E+00  0.00000000E+00  0.00000000E+00
  0.00000000E+00  0.00000000E+00  0.00000000E+00
  0.00000000E+00  0.00000000E+00  0.00000000E+00
  0.00000000E+00  0.00000000E+00  0.00000000E+00
  0.00000000E+00  0.00000000E+00  0.00000000E+00
  0.00000000E+00  0.00000000E+00  0.00000000E+00
  0.00000000E+00  0.00000000E+00  0.00000000E+00
  0.00000000E+00  0.00000000E+00  0.00000000E+00
  0.00000000E+00  0.00000000E+00  0.00000000E+00
  0.00000000E+00  0.00000000E+00  0.00000000E+00
