Na2 Ti24 Zn72 S1                        
    1.000000000000000     
    11.2294328691787779    0.0000000000000000    0.0000000000000007
     5.6147164345893863    9.7123292059284712    0.0178594043744759
     0.0000000000000000    0.0000000000000000   27.4885270238476238
   Na   Ti   Zn   S 
     2    24    72     1
Selective dynamics
Direct
  0.3515699503417897  0.9584433800351145  0.8217142146651745   T   T   T
  0.8443050654428996  0.1704569680012755  0.8228863870951478   T   T   T
  0.5000000000000000  0.0000000000000000  0.3750000000000000   F   F   F
  0.5000000000000000  0.5000000000000000  0.3750000000000000   F   F   F
  0.0000000000000000  0.0000000000000000  0.3750000000000000   F   F   F
  0.0000000000000000  0.5000000000000000  0.3750000000000000   F   F   F
  0.1666666666666643  0.1666666666666643  0.4583333333333357   F   F   F
  0.1666666666666643  0.6666666666666643  0.4583333333333357   F   F   F
  0.6666666666666643  0.1666666666666643  0.4583333333333357   F   F   F
  0.6666666666666643  0.6666666666666643  0.4583333333333357   F   F   F
  0.3333333333333357  0.3333333333333357  0.2916666666666643   F   F   F
  0.3333333333333357  0.8333333333333357  0.2916666666666643   F   F   F
  0.8333333333333357  0.3333333333333357  0.2916666666666643   F   F   F
  0.8333333333333357  0.8333333333333357  0.2916666666666643   F   F   F
  0.5028946813513103  0.9999981894657279  0.6291068349745237   T   T   T
  0.5001855802675972  0.5008915597796493  0.6303616528029177   T   T   T
  0.9988972715251544  0.9985403488005674  0.6290711124007345   T   T   T
  0.0013627906652315  0.5022383572056327  0.6301263194870038   T   T   T
  0.1611642911343499  0.1614599297475728  0.7117898424579726   T   T   T
  0.1661851907522579  0.6634082351150750  0.6998001863781624   T   T   T
  0.6605611224692910  0.1666826081033205  0.7009533469126502   T   T   T
  0.6663978081212746  0.6650176932922216  0.7010290374633710   T   T   T
  0.3333333333333357  0.3333333333333357  0.5416666666666643   F   F   F
  0.3333333333333357  0.8333333333333357  0.5416666666666643   F   F   F
  0.8333333333333357  0.3333333333333357  0.5416666666666643   F   F   F
  0.8333333333333357  0.8333333333333357  0.5416666666666643   F   F   F
  0.0833333333333357  0.0833333333333357  0.2916666666666643   F   F   F
  0.0833333333333357  0.5833333333333357  0.2916666666666643   F   F   F
  0.5833333333333357  0.0833333333333357  0.2916666666666643   F   F   F
  0.5833333333333357  0.5833333333333357  0.2916666666666643   F   F   F
  0.2500000000000000  0.2500000000000000  0.3750000000000000   F   F   F
  0.2500000000000000  0.7500000000000000  0.3750000000000000   F   F   F
  0.7500000000000000  0.2500000000000000  0.3750000000000000   F   F   F
  0.7500000000000000  0.7500000000000000  0.3750000000000000   F   F   F
  0.4166666666666643  0.4166666666666643  0.4583333333333357   F   F   F
  0.4166666666666643  0.9166666666666643  0.4583333333333357   F   F   F
  0.9166666666666643  0.4166666666666643  0.4583333333333357   F   F   F
  0.9166666666666643  0.9166666666666643  0.4583333333333357   F   F   F
  0.3333333333333357  0.0833333333333357  0.2916666666666643   F   F   F
  0.3333333333333357  0.5833333333333357  0.2916666666666643   F   F   F
  0.8333333333333357  0.0833333333333357  0.2916666666666643   F   F   F
  0.8333333333333357  0.5833333333333357  0.2916666666666643   F   F   F
  0.0000000000000000  0.2500000000000000  0.3750000000000000   F   F   F
  0.0000000000000000  0.7500000000000000  0.3750000000000000   F   F   F
  0.5000000000000000  0.2500000000000000  0.3750000000000000   F   F   F
  0.5000000000000000  0.7500000000000000  0.3750000000000000   F   F   F
  0.1666666666666643  0.4166666666666643  0.4583333333333357   F   F   F
  0.1666666666666643  0.9166666666666643  0.4583333333333357   F   F   F
  0.6666666666666643  0.4166666666666643  0.4583333333333357   F   F   F
  0.6666666666666643  0.9166666666666643  0.4583333333333357   F   F   F
  0.0833333333333357  0.3333333333333357  0.2916666666666643   F   F   F
  0.0833333333333357  0.8333333333333357  0.2916666666666643   F   F   F
  0.5833333333333357  0.3333333333333357  0.2916666666666643   F   F   F
  0.5833333333333357  0.8333333333333357  0.2916666666666643   F   F   F
  0.2500000000000000  0.0000000000000000  0.3750000000000000   F   F   F
  0.2500000000000000  0.5000000000000000  0.3750000000000000   F   F   F
  0.7500000000000000  0.0000000000000000  0.3750000000000000   F   F   F
  0.7500000000000000  0.5000000000000000  0.3750000000000000   F   F   F
  0.4166666666666643  0.1666666666666643  0.4583333333333357   F   F   F
  0.4166666666666643  0.6666666666666643  0.4583333333333357   F   F   F
  0.9166666666666643  0.1666666666666643  0.4583333333333357   F   F   F
  0.9166666666666643  0.6666666666666643  0.4583333333333357   F   F   F
  0.0833333333333357  0.0833333333333357  0.5416666666666643   F   F   F
  0.0833333333333357  0.5833333333333357  0.5416666666666643   F   F   F
  0.5833333333333357  0.0833333333333357  0.5416666666666643   F   F   F
  0.5833333333333357  0.5833333333333357  0.5416666666666643   F   F   F
  0.2481637402931940  0.2468306758849722  0.6247973087914411   T   T   T
  0.2525558571178848  0.7492942617712782  0.6205448544648861   T   T   T
  0.7488593544936020  0.2526997805847234  0.6214664642858029   T   T   T
  0.7526878004291269  0.7520751674208646  0.6225846122918596   T   T   T
  0.4155137789665725  0.4138455796680821  0.7128715008442650   T   T   T
  0.4243401952090102  0.9107675265266829  0.7107510250567627   T   T   T
  0.9091397081592359  0.4200941167111844  0.7079721524933835   T   T   T
  0.9118315299541196  0.9166646837979943  0.7138069486731244   T   T   T
  0.3333333333333357  0.0833333333333357  0.5416666666666643   F   F   F
  0.3333333333333357  0.5833333333333357  0.5416666666666643   F   F   F
  0.8333333333333357  0.0833333333333357  0.5416666666666643   F   F   F
  0.8333333333333357  0.5833333333333357  0.5416666666666643   F   F   F
  0.0013645248600988  0.2474750564847948  0.6266241147721217   T   T   T
  0.9955335696476164  0.7526864753307358  0.6216572492427215   T   T   T
  0.4954131848699986  0.2517180079666127  0.6225008433273518   T   T   T
  0.4959292067757960  0.7530296833012717  0.6221451909233152   T   T   T
  0.1751524888323102  0.4104323612692368  0.7112653771453130   T   T   T
  0.1760628931260296  0.9031157673428707  0.7119512049171417   T   T   T
  0.6667697257497818  0.4162710805706474  0.7157758441811216   T   T   T
  0.6710178921413436  0.9141677496020221  0.7138057056004855   T   T   T
  0.0833333333333357  0.3333333333333357  0.5416666666666643   F   F   F
  0.0833333333333357  0.8333333333333357  0.5416666666666643   F   F   F
  0.5833333333333357  0.3333333333333357  0.5416666666666643   F   F   F
  0.5833333333333357  0.8333333333333357  0.5416666666666643   F   F   F
  0.2495466780223133  0.9997071244310709  0.6273778290314761   T   T   T
  0.2529107363255689  0.4945077285916578  0.6217479689000714   T   T   T
  0.7519045471457795  0.9968402029673533  0.6225323127113381   T   T   T
  0.7512456715386403  0.4974999821462656  0.6216864675114923   T   T   T
  0.4114869981223229  0.1707919710736381  0.7124057823859403   T   T   T
  0.4167846699898167  0.6697283774762191  0.7143550544792506   T   T   T
  0.8991501099784950  0.1756432802415381  0.7123455915539985   T   T   T
  0.9129183003354970  0.6744646140697630  0.7122203044049419   T   T   T
  0.0965533961144995  0.1120852124775886  0.7837703245930262   T   T   T
 
  0.00000000E+00  0.00000000E+00  0.00000000E+00
  0.00000000E+00  0.00000000E+00  0.00000000E+00
  0.00000000E+00  0.00000000E+00  0.00000000E+00
  0.00000000E+00  0.00000000E+00  0.00000000E+00
  0.00000000E+00  0.00000000E+00  0.00000000E+00
  0.00000000E+00  0.00000000E+00  0.00000000E+00
  0.00000000E+00  0.00000000E+00  0.00000000E+00
  0.00000000E+00  0.00000000E+00  0.00000000E+00
  0.00000000E+00  0.00000000E+00  0.00000000E+00
  0.00000000E+00  0.00000000E+00  0.00000000E+00
  0.00000000E+00  0.00000000E+00  0.00000000E+00
  0.00000000E+00  0.00000000E+00  0.00000000E+00
  0.00000000E+00  0.00000000E+00  0.00000000E+00
  0.00000000E+00  0.00000000E+00  0.00000000E+00
  0.00000000E+00  0.00000000E+00  0.00000000E+00
  0.00000000E+00  0.00000000E+00  0.00000000E+00
  0.00000000E+00  0.00000000E+00  0.00000000E+00
  0.00000000E+00  0.00000000E+00  0.00000000E+00
  0.00000000E+00  0.00000000E+00  0.00000000E+00
  0.00000000E+00  0.00000000E+00  0.00000000E+00
  0.00000000E+00  0.00000000E+00  0.00000000E+00
  0.00000000E+00  0.00000000E+00  0.00000000E+00
  0.00000000E+00  0.00000000E+00  0.00000000E+00
  0.00000000E+00  0.00000000E+00  0.00000000E+00
  0.00000000E+00  0.00000000E+00  0.00000000E+00
  0.00000000E+00  0.00000000E+00  0.00000000E+00
  0.00000000E+00  0.00000000E+00  0.00000000E+00
  0.00000000E+00  0.00000000E+00  0.00000000E+00
  0.00000000E+00  0.00000000E+00  0.00000000E+00
  0.00000000E+00  0.00000000E+00  0.00000000E+00
  0.00000000E+00  0.00000000E+00  0.00000000E+00
  0.00000000E+00  0.00000000E+00  0.00000000E+00
  0.00000000E+00  0.00000000E+00  0.00000000E+00
  0.00000000E+00  0.00000000E+00  0.00000000E+00
  0.00000000E+00  0.00000000E+00  0.00000000E+00
  0.00000000E+00  0.00000000E+00  0.00000000E+00
  0.00000000E+00  0.00000000E+00  0.00000000E+00
  0.00000000E+00  0.00000000E+00  0.00000000E+00
  0.00000000E+00  0.00000000E+00  0.00000000E+00
  0.00000000E+00  0.00000000E+00  0.00000000E+00
  0.00000000E+00  0.00000000E+00  0.00000000E+00
  0.00000000E+00  0.00000000E+00  0.00000000E+00
  0.00000000E+00  0.00000000E+00  0.00000000E+00
  0.00000000E+00  0.00000000E+00  0.00000000E+00
  0.00000000E+00  0.00000000E+00  0.00000000E+00
  0.00000000E+00  0.00000000E+00  0.00000000E+00
  0.00000000E+00  0.00000000E+00  0.00000000E+00
  0.00000000E+00  0.00000000E+00  0.00000000E+00
  0.00000000E+00  0.00000000E+00  0.00000000E+00
  0.00000000E+00  0.00000000E+00  0.00000000E+00
  0.00000000E+00  0.00000000E+00  0.00000000E+00
  0.00000000E+00  0.00000000E+00  0.00000000E+00
  0.00000000E+00  0.00000000E+00  0.00000000E+00
  0.00000000E+00  0.00000000E+00  0.00000000E+00
  0.00000000E+00  0.00000000E+00  0.00000000E+00
  0.00000000E+00  0.00000000E+00  0.00000000E+00
  0.00000000E+00  0.00000000E+00  0.00000000E+00
  0.00000000E+00  0.00000000E+00  0.00000000E+00
  0.00000000E+00  0.00000000E+00  0.00000000E+00
  0.00000000E+00  0.00000000E+00  0.00000000E+00
  0.00000000E+00  0.00000000E+00  0.00000000E+00
  0.00000000E+00  0.00000000E+00  0.00000000E+00
  0.00000000E+00  0.00000000E+00  0.00000000E+00
  0.00000000E+00  0.00000000E+00  0.00000000E+00
  0.00000000E+00  0.00000000E+00  0.00000000E+00
  0.00000000E+00  0.00000000E+00  0.00000000E+00
  0.00000000E+00  0.00000000E+00  0.00000000E+00
  0.00000000E+00  0.00000000E+00  0.00000000E+00
  0.00000000E+00  0.00000000E+00  0.00000000E+00
  0.00000000E+00  0.00000000E+00  0.00000000E+00
  0.00000000E+00  0.00000000E+00  0.00000000E+00
  0.00000000E+00  0.00000000E+00  0.00000000E+00
  0.00000000E+00  0.00000000E+00  0.00000000E+00
  0.00000000E+00  0.00000000E+00  0.00000000E+00
  0.00000000E+00  0.00000000E+00  0.00000000E+00
  0.00000000E+00  0.00000000E+00  0.00000000E+00
  0.00000000E+00  0.00000000E+00  0.00000000E+00
  0.00000000E+00  0.00000000E+00  0.00000000E+00
  0.00000000E+00  0.00000000E+00  0.00000000E+00
  0.00000000E+00  0.00000000E+00  0.00000000E+00
  0.00000000E+00  0.00000000E+00  0.00000000E+00
  0.00000000E+00  0.00000000E+00  0.00000000E+00
  0.00000000E+00  0.00000000E+00  0.00000000E+00
  0.00000000E+00  0.00000000E+00  0.00000000E+00
  0.00000000E+00  0.00000000E+00  0.00000000E+00
  0.00000000E+00  0.00000000E+00  0.00000000E+00
  0.00000000E+00  0.00000000E+00  0.00000000E+00
  0.00000000E+00  0.00000000E+00  0.00000000E+00
  0.00000000E+00  0.00000000E+00  0.00000000E+00
  0.00000000E+00  0.00000000E+00  0.00000000E+00
  0.00000000E+00  0.00000000E+00  0.00000000E+00
  0.00000000E+00  0.00000000E+00  0.00000000E+00
  0.00000000E+00  0.00000000E+00  0.00000000E+00
  0.00000000E+00  0.00000000E+00  0.00000000E+00
  0.00000000E+00  0.00000000E+00  0.00000000E+00
  0.00000000E+00  0.00000000E+00  0.00000000E+00
  0.00000000E+00  0.00000000E+00  0.00000000E+00
  0.00000000E+00  0.00000000E+00  0.00000000E+00
  0.00000000E+00  0.00000000E+00  0.00000000E+00
