K2 V8 Zn1 O20                           
    1.000000000000000     
    12.0075837918052795    0.0000000000000000   -0.3487369525088522
     0.0000000000000000    3.7398527971215527    0.0000000000000000
     0.0056534280801214    0.0000000000000000    8.9148170731206573
   Zn   K    V    O 
     1     2     8    20
Direct
  0.7766480394702029  0.0000000000000000  0.4388617789315271
  0.4022274511405557  0.0000000000000000  0.5410651208973478
  0.0875638969577365  0.5000000000000000  0.4585105886260370
  0.0550876804380782  0.0000000000000000  0.8431989322148021
  0.9320161803405846  0.0000000000000000  0.1501798739433501
  0.5568873043320026  0.5000000000000000  0.8408468889750833
  0.4345235380529658  0.5000000000000000  0.1563950818081413
  0.7575207641304591  0.0000000000000000  0.8398639303422173
  0.2369660188895405  0.0000000000000000  0.1569245681989784
  0.2542435914905826  0.5000000000000000  0.8476890180046358
  0.7308993530406620  0.5000000000000000  0.1483866984531563
  0.5955494652406487  0.0000000000000000  0.8639458591125752
  0.4002234344713312  0.0000000000000000  0.1308445182164910
  0.0877657864726127  0.5000000000000000  0.8713346089089016
  0.8961890936652764  0.5000000000000000  0.1299279482459167
  0.9160970823750719  0.0000000000000000  0.9103330462986603
  0.0719684803003156  0.0000000000000000  0.1189609807834172
  0.4178962656807198  0.5000000000000000  0.8946739438202765
  0.5748486865781128  0.5000000000000000  0.1007518168195852
  0.2204051545498830  0.0000000000000000  0.8977872717583362
  0.7591493959970183  0.0000000000000000  0.1091266300830905
  0.7290292476136724  0.5000000000000000  0.8969310517452449
  0.2665285705364894  0.5000000000000000  0.1064597636939486
  0.0380998000756306  0.0000000000000000  0.6616091295181652
  0.9242389919253557  0.0000000000000000  0.3429342682872012
  0.5485511135448585  0.5000000000000000  0.6576890542542837
  0.4472030052912290  0.5000000000000000  0.3387067433545631
  0.7732533539322255  0.0000000000000000  0.6521668476592237
  0.2236514307632042  0.0000000000000000  0.3412706764545543
  0.2662369033706907  0.5000000000000000  0.6631541481349958
  0.7292452050465691  0.5000000000000000  0.3478025457886342
 
  0.00000000E+00  0.00000000E+00  0.00000000E+00
  0.00000000E+00  0.00000000E+00  0.00000000E+00
  0.00000000E+00  0.00000000E+00  0.00000000E+00
  0.00000000E+00  0.00000000E+00  0.00000000E+00
  0.00000000E+00  0.00000000E+00  0.00000000E+00
  0.00000000E+00  0.00000000E+00  0.00000000E+00
  0.00000000E+00  0.00000000E+00  0.00000000E+00
  0.00000000E+00  0.00000000E+00  0.00000000E+00
  0.00000000E+00  0.00000000E+00  0.00000000E+00
  0.00000000E+00  0.00000000E+00  0.00000000E+00
  0.00000000E+00  0.00000000E+00  0.00000000E+00
  0.00000000E+00  0.00000000E+00  0.00000000E+00
  0.00000000E+00  0.00000000E+00  0.00000000E+00
  0.00000000E+00  0.00000000E+00  0.00000000E+00
  0.00000000E+00  0.00000000E+00  0.00000000E+00
  0.00000000E+00  0.00000000E+00  0.00000000E+00
  0.00000000E+00  0.00000000E+00  0.00000000E+00
  0.00000000E+00  0.00000000E+00  0.00000000E+00
  0.00000000E+00  0.00000000E+00  0.00000000E+00
  0.00000000E+00  0.00000000E+00  0.00000000E+00
  0.00000000E+00  0.00000000E+00  0.00000000E+00
  0.00000000E+00  0.00000000E+00  0.00000000E+00
  0.00000000E+00  0.00000000E+00  0.00000000E+00
  0.00000000E+00  0.00000000E+00  0.00000000E+00
  0.00000000E+00  0.00000000E+00  0.00000000E+00
  0.00000000E+00  0.00000000E+00  0.00000000E+00
  0.00000000E+00  0.00000000E+00  0.00000000E+00
  0.00000000E+00  0.00000000E+00  0.00000000E+00
  0.00000000E+00  0.00000000E+00  0.00000000E+00
  0.00000000E+00  0.00000000E+00  0.00000000E+00
  0.00000000E+00  0.00000000E+00  0.00000000E+00
