K2 V8 Zn1 O20                           
    1.000000000000000     
    11.7192980000000002    0.0000000000000000   -0.3614940000000000
     0.0000000000000000    3.7000649999999999    0.0000000000000000
     0.0000000000000000    0.0000000000000000    9.3907360000000004
   Zn   K    V    O 
     1     2     8    20
Direct
  0.0273607152528023  0.5000000000000000  0.6678948389515591
  0.4080049756203703  0.0000000000000000  0.5186820887075987
  0.1174226804723063  0.5000000000000000  0.3871703160840185
  0.0625444921973127  0.0000000000000000  0.9029895747184526
  0.9290287001016537  0.0000000000000000  0.1785504277754229
  0.5673494824177249  0.5000000000000000  0.8193223331982170
  0.4448106526417208  0.5000000000000000  0.1450732572612329
  0.7723060307660164  0.0000000000000000  0.8280347087791908
  0.2512166266379576  0.0000000000000000  0.1351583521039147
  0.2661518733769152  0.5000000000000000  0.8429132494858953
  0.7287488443996897  0.5000000000000000  0.1962985565332789
  0.6038028472502728  0.0000000000000000  0.8483980204141875
  0.4187830431100156  0.0000000000000000  0.1124659752548391
  0.0908828864279993  0.5000000000000000  0.8848545514177397
  0.8955856311152823  0.5000000000000000  0.1559620928304893
  0.9034320027360520  0.0000000000000000  0.9325302316599007
  0.0751923672884590  0.0000000000000000  0.1147710723320532
  0.4289600386070949  0.5000000000000000  0.8833658607796868
  0.5922690209593279  0.5000000000000000  0.0984465784411185
  0.2398985266012709  0.0000000000000000  0.9019976108501002
  0.7599266693686512  0.0000000000000000  0.1566827747908053
  0.7377780466876945  0.5000000000000000  0.8618007394645126
  0.2744148422811713  0.5000000000000000  0.0897932950673522
  0.0408748777737770  0.0000000000000000  0.6818601019941890
  0.9577532602761389  0.0000000000000000  0.3497945879209383
  0.5468431831696622  0.5000000000000000  0.6478878787932713
  0.4472173712315650  0.5000000000000000  0.3193551619230606
  0.8005002417299079  0.0000000000000000  0.6620079756908784
  0.2482121646917315  0.0000000000000000  0.3128720233976037
  0.2500059567378384  0.5000000000000000  0.6657936611029410
  0.7055790909287869  0.5000000000000000  0.3639387689422166
 
  0.00000000E+00  0.00000000E+00  0.00000000E+00
  0.00000000E+00  0.00000000E+00  0.00000000E+00
  0.00000000E+00  0.00000000E+00  0.00000000E+00
  0.00000000E+00  0.00000000E+00  0.00000000E+00
  0.00000000E+00  0.00000000E+00  0.00000000E+00
  0.00000000E+00  0.00000000E+00  0.00000000E+00
  0.00000000E+00  0.00000000E+00  0.00000000E+00
  0.00000000E+00  0.00000000E+00  0.00000000E+00
  0.00000000E+00  0.00000000E+00  0.00000000E+00
  0.00000000E+00  0.00000000E+00  0.00000000E+00
  0.00000000E+00  0.00000000E+00  0.00000000E+00
  0.00000000E+00  0.00000000E+00  0.00000000E+00
  0.00000000E+00  0.00000000E+00  0.00000000E+00
  0.00000000E+00  0.00000000E+00  0.00000000E+00
  0.00000000E+00  0.00000000E+00  0.00000000E+00
  0.00000000E+00  0.00000000E+00  0.00000000E+00
  0.00000000E+00  0.00000000E+00  0.00000000E+00
  0.00000000E+00  0.00000000E+00  0.00000000E+00
  0.00000000E+00  0.00000000E+00  0.00000000E+00
  0.00000000E+00  0.00000000E+00  0.00000000E+00
  0.00000000E+00  0.00000000E+00  0.00000000E+00
  0.00000000E+00  0.00000000E+00  0.00000000E+00
  0.00000000E+00  0.00000000E+00  0.00000000E+00
  0.00000000E+00  0.00000000E+00  0.00000000E+00
  0.00000000E+00  0.00000000E+00  0.00000000E+00
  0.00000000E+00  0.00000000E+00  0.00000000E+00
  0.00000000E+00  0.00000000E+00  0.00000000E+00
  0.00000000E+00  0.00000000E+00  0.00000000E+00
  0.00000000E+00  0.00000000E+00  0.00000000E+00
  0.00000000E+00  0.00000000E+00  0.00000000E+00
  0.00000000E+00  0.00000000E+00  0.00000000E+00
