Na2 Mn72 Ni24 S2                        
   1.00000000000000     
    10.0435731758686053    0.0000000000000000    0.0000000000000006
     5.0217865879343071    8.6979895150701676    0.0000000000000006
     0.0000000000000000    0.0000000000000000   24.6016294751824205
   Na   Mn   Ni   S 
     2    72    24     2
Selective dynamics
Direct
  0.0864756113861311  0.5827486184132216  0.8137104298638208   T   T   T
  0.1143256468906577  0.0966689031543270  0.8154633564331906   T   T   T
  0.3333333333333357  0.0833333333333357  0.2916666666666643   F   F   F
  0.3333333333333357  0.5833333333333357  0.2916666666666643   F   F   F
  0.8333333333333357  0.0833333333333357  0.2916666666666643   F   F   F
  0.8333333333333357  0.5833333333333357  0.2916666666666643   F   F   F
  0.0000000000000000  0.2500000000000000  0.3750000000000000   F   F   F
  0.0000000000000000  0.7500000000000000  0.3750000000000000   F   F   F
  0.5000000000000000  0.2500000000000000  0.3750000000000000   F   F   F
  0.5000000000000000  0.7500000000000000  0.3750000000000000   F   F   F
  0.1666666666666643  0.4166666666666643  0.4583333333333357   F   F   F
  0.1666666666666643  0.9166666666666643  0.4583333333333357   F   F   F
  0.6666666666666643  0.4166666666666643  0.4583333333333357   F   F   F
  0.6666666666666643  0.9166666666666643  0.4583333333333357   F   F   F
  0.0833333333333357  0.0833333333333357  0.2916666666666643   F   F   F
  0.0833333333333357  0.5833333333333357  0.2916666666666643   F   F   F
  0.5833333333333357  0.0833333333333357  0.2916666666666643   F   F   F
  0.5833333333333357  0.5833333333333357  0.2916666666666643   F   F   F
  0.2500000000000000  0.2500000000000000  0.3750000000000000   F   F   F
  0.2500000000000000  0.7500000000000000  0.3750000000000000   F   F   F
  0.7500000000000000  0.2500000000000000  0.3750000000000000   F   F   F
  0.7500000000000000  0.7500000000000000  0.3750000000000000   F   F   F
  0.4166666666666643  0.4166666666666643  0.4583333333333357   F   F   F
  0.4166666666666643  0.9166666666666643  0.4583333333333357   F   F   F
  0.9166666666666643  0.4166666666666643  0.4583333333333357   F   F   F
  0.9166666666666643  0.9166666666666643  0.4583333333333357   F   F   F
  0.0833333333333357  0.3333333333333357  0.2916666666666643   F   F   F
  0.0833333333333357  0.8333333333333357  0.2916666666666643   F   F   F
  0.5833333333333357  0.3333333333333357  0.2916666666666643   F   F   F
  0.5833333333333357  0.8333333333333357  0.2916666666666643   F   F   F
  0.2500000000000000  0.5000000000000000  0.3750000000000000   F   F   F
  0.2500000000000000  0.0000000000000000  0.3750000000000000   F   F   F
  0.7500000000000000  0.5000000000000000  0.3750000000000000   F   F   F
  0.7500000000000000  0.0000000000000000  0.3750000000000000   F   F   F
  0.4166666666666643  0.1666666666666643  0.4583333333333357   F   F   F
  0.4166666666666643  0.6666666666666643  0.4583333333333357   F   F   F
  0.9166666666666643  0.1666666666666643  0.4583333333333357   F   F   F
  0.9166666666666643  0.6666666666666643  0.4583333333333357   F   F   F
  0.3333333333333357  0.0833333333333357  0.5416666666666643   F   F   F
  0.3333333333333357  0.5833333333333357  0.5416666666666643   F   F   F
  0.8333333333333357  0.0833333333333357  0.5416666666666643   F   F   F
  0.8333333333333357  0.5833333333333357  0.5416666666666643   F   F   F
  0.0019469687654758  0.2501219237494019  0.6249361771750837   T   T   T
  0.0027524270857569  0.7460311953781454  0.6250590942147219   T   T   T
  0.4943320341234638  0.2524216047892837  0.6254771064524207   T   T   T
  0.5039338755451228  0.7534852885805661  0.6264337707166899   T   T   T
  0.1682855772941464  0.4202262362102857  0.7029215830785761   T   T   T
  0.1818608615082113  0.9058990287333462  0.7047460325974334   T   T   T
  0.6779904344625647  0.4075745277346763  0.7043530779513879   T   T   T
  0.6736273059113764  0.9095478091721518  0.7112919293101848   T   T   T
  0.0833333333333357  0.0833333333333357  0.5416666666666643   F   F   F
  0.0833333333333357  0.5833333333333357  0.5416666666666643   F   F   F
  0.5833333333333357  0.0833333333333357  0.5416666666666643   F   F   F
  0.5833333333333357  0.5833333333333357  0.5416666666666643   F   F   F
  0.2528793201655181  0.2549735917105135  0.6254684592933853   T   T   T
  0.2540178290407325  0.7474552412801985  0.6268449483749435   T   T   T
  0.7497082477213898  0.2492500917006954  0.6278613287297418   T   T   T
  0.7530464192968946  0.7417800383538842  0.6249936266827393   T   T   T
  0.4169718583543581  0.4056332186018217  0.7050065704207219   T   T   T
  0.4125069173038297  0.9115218711376867  0.7041403974030298   T   T   T
  0.9214121360587645  0.4251975531581588  0.7200194385992130   T   T   T
  0.9210707327122590  0.9013084954313173  0.7060127299343115   T   T   T
  0.0833333333333357  0.3333333333333357  0.5416666666666643   F   F   F
  0.0833333333333357  0.8333333333333357  0.5416666666666643   F   F   F
  0.5833333333333357  0.3333333333333357  0.5416666666666643   F   F   F
  0.5833333333333357  0.8333333333333357  0.5416666666666643   F   F   F
  0.2553990527925720  0.4928489034040428  0.6272128400029410   T   T   T
  0.2480159771577138  0.0044889362072609  0.6259698437750283   T   T   T
  0.7487787594761736  0.5032775277851382  0.6276614356322093   T   T   T
  0.7505312054261318  0.0004357213573647  0.6257380384401194   T   T   T
  0.4236624559390585  0.1614947117338383  0.7022758252069912   T   T   T
  0.4213846172224461  0.6567614291604535  0.7167775147400974   T   T   T
  0.9214170590480576  0.1521866049391074  0.7137344913416938   T   T   T
  0.9163221446818719  0.6748191916367814  0.7018560863550498   T   T   T
  0.0000000000000000  0.5000000000000000  0.3750000000000000   F   F   F
  0.0000000000000000  0.0000000000000000  0.3750000000000000   F   F   F
  0.5000000000000000  0.5000000000000000  0.3750000000000000   F   F   F
  0.5000000000000000  0.0000000000000000  0.3750000000000000   F   F   F
  0.1666666666666643  0.1666666666666643  0.4583333333333357   F   F   F
  0.1666666666666643  0.6666666666666643  0.4583333333333357   F   F   F
  0.6666666666666643  0.1666666666666643  0.4583333333333357   F   F   F
  0.6666666666666643  0.6666666666666643  0.4583333333333357   F   F   F
  0.3333333333333357  0.3333333333333357  0.2916666666666643   F   F   F
  0.3333333333333357  0.8333333333333357  0.2916666666666643   F   F   F
  0.8333333333333357  0.3333333333333357  0.2916666666666643   F   F   F
  0.8333333333333357  0.8333333333333357  0.2916666666666643   F   F   F
  0.0012946952527247  0.4968977600983630  0.6229441092876603   T   T   T
  0.0015525251369263 -0.0040949337800980  0.6238518337666563   T   T   T
  0.4995602408052785  0.5004325919324083  0.6256982591000803   T   T   T
  0.5018175269484765 -0.0010997473324919  0.6218971885635457   T   T   T
  0.1701803809764558  0.1680928945881195  0.7092847401997817   T   T   T
  0.1697161194701685  0.6637549953537603  0.7071212040300301   T   T   T
  0.6689550649975711  0.1610026385870996  0.7078911729089656   T   T   T
  0.6665566257852538  0.6666685720131538  0.7105182485981683   T   T   T
  0.3333333333333357  0.3333333333333357  0.5416666666666643   F   F   F
  0.3333333333333357  0.8333333333333357  0.5416666666666643   F   F   F
  0.8333333333333357  0.3333333333333357  0.5416666666666643   F   F   F
  0.8333333333333357  0.8333333333333357  0.5416666666666643   F   F   F
  0.2920788320441787  0.2740771087911688  0.7736698257082273   T   T   T
  0.8720605570680249  0.4636603116885727  0.8054071605287776   T   T   T
 
  0.00000000E+00  0.00000000E+00  0.00000000E+00
  0.00000000E+00  0.00000000E+00  0.00000000E+00
  0.00000000E+00  0.00000000E+00  0.00000000E+00
  0.00000000E+00  0.00000000E+00  0.00000000E+00
  0.00000000E+00  0.00000000E+00  0.00000000E+00
  0.00000000E+00  0.00000000E+00  0.00000000E+00
  0.00000000E+00  0.00000000E+00  0.00000000E+00
  0.00000000E+00  0.00000000E+00  0.00000000E+00
  0.00000000E+00  0.00000000E+00  0.00000000E+00
  0.00000000E+00  0.00000000E+00  0.00000000E+00
  0.00000000E+00  0.00000000E+00  0.00000000E+00
  0.00000000E+00  0.00000000E+00  0.00000000E+00
  0.00000000E+00  0.00000000E+00  0.00000000E+00
  0.00000000E+00  0.00000000E+00  0.00000000E+00
  0.00000000E+00  0.00000000E+00  0.00000000E+00
  0.00000000E+00  0.00000000E+00  0.00000000E+00
  0.00000000E+00  0.00000000E+00  0.00000000E+00
  0.00000000E+00  0.00000000E+00  0.00000000E+00
  0.00000000E+00  0.00000000E+00  0.00000000E+00
  0.00000000E+00  0.00000000E+00  0.00000000E+00
  0.00000000E+00  0.00000000E+00  0.00000000E+00
  0.00000000E+00  0.00000000E+00  0.00000000E+00
  0.00000000E+00  0.00000000E+00  0.00000000E+00
  0.00000000E+00  0.00000000E+00  0.00000000E+00
  0.00000000E+00  0.00000000E+00  0.00000000E+00
  0.00000000E+00  0.00000000E+00  0.00000000E+00
  0.00000000E+00  0.00000000E+00  0.00000000E+00
  0.00000000E+00  0.00000000E+00  0.00000000E+00
  0.00000000E+00  0.00000000E+00  0.00000000E+00
  0.00000000E+00  0.00000000E+00  0.00000000E+00
  0.00000000E+00  0.00000000E+00  0.00000000E+00
  0.00000000E+00  0.00000000E+00  0.00000000E+00
  0.00000000E+00  0.00000000E+00  0.00000000E+00
  0.00000000E+00  0.00000000E+00  0.00000000E+00
  0.00000000E+00  0.00000000E+00  0.00000000E+00
  0.00000000E+00  0.00000000E+00  0.00000000E+00
  0.00000000E+00  0.00000000E+00  0.00000000E+00
  0.00000000E+00  0.00000000E+00  0.00000000E+00
  0.00000000E+00  0.00000000E+00  0.00000000E+00
  0.00000000E+00  0.00000000E+00  0.00000000E+00
  0.00000000E+00  0.00000000E+00  0.00000000E+00
  0.00000000E+00  0.00000000E+00  0.00000000E+00
  0.00000000E+00  0.00000000E+00  0.00000000E+00
  0.00000000E+00  0.00000000E+00  0.00000000E+00
  0.00000000E+00  0.00000000E+00  0.00000000E+00
  0.00000000E+00  0.00000000E+00  0.00000000E+00
  0.00000000E+00  0.00000000E+00  0.00000000E+00
  0.00000000E+00  0.00000000E+00  0.00000000E+00
  0.00000000E+00  0.00000000E+00  0.00000000E+00
  0.00000000E+00  0.00000000E+00  0.00000000E+00
  0.00000000E+00  0.00000000E+00  0.00000000E+00
  0.00000000E+00  0.00000000E+00  0.00000000E+00
  0.00000000E+00  0.00000000E+00  0.00000000E+00
  0.00000000E+00  0.00000000E+00  0.00000000E+00
  0.00000000E+00  0.00000000E+00  0.00000000E+00
  0.00000000E+00  0.00000000E+00  0.00000000E+00
  0.00000000E+00  0.00000000E+00  0.00000000E+00
  0.00000000E+00  0.00000000E+00  0.00000000E+00
  0.00000000E+00  0.00000000E+00  0.00000000E+00
  0.00000000E+00  0.00000000E+00  0.00000000E+00
  0.00000000E+00  0.00000000E+00  0.00000000E+00
  0.00000000E+00  0.00000000E+00  0.00000000E+00
  0.00000000E+00  0.00000000E+00  0.00000000E+00
  0.00000000E+00  0.00000000E+00  0.00000000E+00
  0.00000000E+00  0.00000000E+00  0.00000000E+00
  0.00000000E+00  0.00000000E+00  0.00000000E+00
  0.00000000E+00  0.00000000E+00  0.00000000E+00
  0.00000000E+00  0.00000000E+00  0.00000000E+00
  0.00000000E+00  0.00000000E+00  0.00000000E+00
  0.00000000E+00  0.00000000E+00  0.00000000E+00
  0.00000000E+00  0.00000000E+00  0.00000000E+00
  0.00000000E+00  0.00000000E+00  0.00000000E+00
  0.00000000E+00  0.00000000E+00  0.00000000E+00
  0.00000000E+00  0.00000000E+00  0.00000000E+00
  0.00000000E+00  0.00000000E+00  0.00000000E+00
  0.00000000E+00  0.00000000E+00  0.00000000E+00
  0.00000000E+00  0.00000000E+00  0.00000000E+00
  0.00000000E+00  0.00000000E+00  0.00000000E+00
  0.00000000E+00  0.00000000E+00  0.00000000E+00
  0.00000000E+00  0.00000000E+00  0.00000000E+00
  0.00000000E+00  0.00000000E+00  0.00000000E+00
  0.00000000E+00  0.00000000E+00  0.00000000E+00
  0.00000000E+00  0.00000000E+00  0.00000000E+00
  0.00000000E+00  0.00000000E+00  0.00000000E+00
  0.00000000E+00  0.00000000E+00  0.00000000E+00
  0.00000000E+00  0.00000000E+00  0.00000000E+00
  0.00000000E+00  0.00000000E+00  0.00000000E+00
  0.00000000E+00  0.00000000E+00  0.00000000E+00
  0.00000000E+00  0.00000000E+00  0.00000000E+00
  0.00000000E+00  0.00000000E+00  0.00000000E+00
  0.00000000E+00  0.00000000E+00  0.00000000E+00
  0.00000000E+00  0.00000000E+00  0.00000000E+00
  0.00000000E+00  0.00000000E+00  0.00000000E+00
  0.00000000E+00  0.00000000E+00  0.00000000E+00
  0.00000000E+00  0.00000000E+00  0.00000000E+00
  0.00000000E+00  0.00000000E+00  0.00000000E+00
  0.00000000E+00  0.00000000E+00  0.00000000E+00
  0.00000000E+00  0.00000000E+00  0.00000000E+00
  0.00000000E+00  0.00000000E+00  0.00000000E+00
  0.00000000E+00  0.00000000E+00  0.00000000E+00
