K6 V24 Zn1 O57                          
   1.00000000000000     
    11.8654776295201838    0.0000000000000000   -0.0247009090362211
    -0.0000000000000007   11.1980926800000002    0.0000000000000007
     0.0000000000000000    0.0000000000000000    9.3174472099999992
   K    V    Zn   O 
     6    24     1    57
Direct
  0.4103903538597539  0.0013310667196830  0.5224222645572533
  0.4080084102821547  0.3333501865619010  0.5224170503189645
  0.4106433518414613  0.6653580530270844  0.5225151027027771
  0.0977425488547618  0.1665156409393367  0.4717000987838137
  0.0977746441893358  0.5002671627000786  0.4715839394181569
  0.0913239673755356  0.8333927469559221  0.4723442339987147
  0.0624860482782759 -0.0002680399132012  0.8491237310663862
  0.0623033280374386  0.3333677761490398  0.8477377874167504
  0.0624738346552322  0.6670504421402274  0.8490388449312848
  0.9401823553793907 -0.0010721702542299  0.1617563265171069
  0.9400166221824408  0.3335105726699625  0.1561036909441484
  0.9401866815904664  0.6680548285728432  0.1615030425843606
  0.5635443234391139  0.1677858898011756  0.8232044320990319
  0.5636170079920325  0.4989252415528742  0.8232985154379912
  0.5639269796605790  0.8335068680993902  0.8223874113822088
  0.4429066564637075  0.1660488751153643  0.1416386623364407
  0.4428920533388935  0.5007378241409115  0.1416386812453091
  0.4374724490429298  0.8333717985377325  0.1435510450964773
  0.7609631831149468  0.0014285767196454  0.8897984877028916
  0.7617749661339146  0.3332527796889320  0.8964607043308749
  0.7607912583493404  0.6655529827420280  0.8896058495645500
  0.2411790250391532  0.0009472764575933  0.1523295814324747
  0.2452882757757809  0.3333930256192066  0.1533017641608342
  0.2411679180059292  0.6658490052098102  0.1522343359901038
  0.2638051074665227  0.1666513469864545  0.8454864667586179
  0.2637919783585958  0.5001137041462211  0.8454291686610828
  0.2647134866432006  0.8333759681147237  0.8444273944497814
  0.7309439726253675  0.1652937506231517  0.1799809526393221
  0.7309692290387155  0.5015536089466514  0.1797339926017961
  0.7284559019617343  0.8334902463475856  0.1706967437956764
  0.7832511654594286  0.3335264659195596  0.4119083273979346
  0.5945581120633114  0.0008674478817641  0.8525050136480056
  0.5938952515607773  0.3333499816334841  0.8596637746861103
  0.5945894637704983  0.6660022508676661  0.8521181214917131
  0.4083610559460248 -0.0010541921104858  0.1193526649455911
  0.4097285953052110  0.3334032696943371  0.1191749914188970
  0.4083399894559703  0.6678101165309138  0.1192887147674730
  0.0943508080039159  0.1680913561822542  0.8741514796131901
  0.0942960282717787  0.4986719595830493  0.8740826586660175
  0.0949479572564347  0.8334094769222671  0.8720915027190080
  0.8939907036880070  0.1678313689008786  0.1412089536845239
  0.8940274842051333  0.4990733909862066  0.1408151229293706
  0.8953444193749338  0.8335033607742139  0.1415093688677344
  0.9229471302428403  0.0010145497857726  0.9184391291176914
  0.9249387169114132  0.3332740132945701  0.9310286442439339
  0.9228697834255509  0.6659854041770630  0.9180899605278945
  0.0795974850807791  0.0000932894092584  0.1079620132583275
  0.0799845192654077  0.3335115074262092  0.1230197316333763
  0.0795830117686563  0.6668878275903117  0.1076990519073906
  0.4257073505940577  0.1664837096762765  0.8947888810062813
  0.4257207091170511  0.5002905887607713  0.8946377023616938
  0.4267235978597706  0.8333943240810200  0.8964798755003887
  0.5878080188174696  0.1632044570721109  0.0901555684937565
  0.5877689082659671  0.5036565764123462  0.0900290871949899
  0.5889632617666172  0.8333999195543905  0.0928195484635184
  0.2297762585928430  0.0002045886983947  0.8952486916904869
  0.2274587843346517  0.3333922591637799  0.8959731175263882
  0.2297891759719473  0.6665531178164786  0.8952071727318160
  0.7592540825916262 -0.0020870225981529  0.1165848212198455
  0.7575838553767585  0.3334033102333617  0.1177605789013977
  0.7593076109049743  0.6690304905024848  0.1164368046575287
  0.7366476707584665  0.1686886254176823  0.8453249185140332
  0.7366282621990463  0.4980514357150941  0.8461599121039154
  0.7348569801344033  0.8335120900586371  0.8528697783698883
  0.2729088971626936  0.1672149278785048  0.1011342886305510
  0.2729216076029451  0.4995520528685546  0.1011148553790690
  0.2713899119241270  0.8334127532437683  0.1032612459137941
  0.0460158651915947  0.0016729349340808  0.6750558886062741
  0.0349990920964054  0.3333421193522474  0.6754643842986379
  0.0461912844895661  0.6651193037889583  0.6749296559488688
  0.9488886123273980  0.0028565355233908  0.3371266991577245
  0.9364723548398195  0.3335906599738701  0.3449412911243763
  0.9488461031430322  0.6640155634188257  0.3368792846012308
  0.5440767412442882  0.1708197936258812  0.6499255166212036
  0.5443386314750432  0.4957548048695977  0.6499408762882324
  0.5423023842066005  0.8336060481008454  0.6498935548252951
  0.4511097457015487  0.1663116058472354  0.3165372879634420
  0.4512189918388291  0.5004364993058759  0.3165298741951482
  0.4484240250767169  0.8333131717552520  0.3178470070302075
  0.2268572359110699  0.0008080133115730  0.3293015771846605
  0.2312806323117382  0.3333289805712858  0.3304611200287597
  0.2268065964112499  0.6659126954841231  0.3291923798121867
  0.2761284025202341  0.1681592130091795  0.6681026677461196
  0.2761340452106683  0.4985432378853451  0.6680576925507513
  0.2779085681797652  0.8333445175378236  0.6675410088769729
  0.7152627986208844  0.1846401837653381  0.3602889118081084
  0.7153787423043864  0.4822853133107770  0.3599136231303006
  0.7118786028909696  0.8333907195055998  0.3404734410928169
 
  0.00000000E+00  0.00000000E+00  0.00000000E+00
  0.00000000E+00  0.00000000E+00  0.00000000E+00
  0.00000000E+00  0.00000000E+00  0.00000000E+00
  0.00000000E+00  0.00000000E+00  0.00000000E+00
  0.00000000E+00  0.00000000E+00  0.00000000E+00
  0.00000000E+00  0.00000000E+00  0.00000000E+00
  0.00000000E+00  0.00000000E+00  0.00000000E+00
  0.00000000E+00  0.00000000E+00  0.00000000E+00
  0.00000000E+00  0.00000000E+00  0.00000000E+00
  0.00000000E+00  0.00000000E+00  0.00000000E+00
  0.00000000E+00  0.00000000E+00  0.00000000E+00
  0.00000000E+00  0.00000000E+00  0.00000000E+00
  0.00000000E+00  0.00000000E+00  0.00000000E+00
  0.00000000E+00  0.00000000E+00  0.00000000E+00
  0.00000000E+00  0.00000000E+00  0.00000000E+00
  0.00000000E+00  0.00000000E+00  0.00000000E+00
  0.00000000E+00  0.00000000E+00  0.00000000E+00
  0.00000000E+00  0.00000000E+00  0.00000000E+00
  0.00000000E+00  0.00000000E+00  0.00000000E+00
  0.00000000E+00  0.00000000E+00  0.00000000E+00
  0.00000000E+00  0.00000000E+00  0.00000000E+00
  0.00000000E+00  0.00000000E+00  0.00000000E+00
  0.00000000E+00  0.00000000E+00  0.00000000E+00
  0.00000000E+00  0.00000000E+00  0.00000000E+00
  0.00000000E+00  0.00000000E+00  0.00000000E+00
  0.00000000E+00  0.00000000E+00  0.00000000E+00
  0.00000000E+00  0.00000000E+00  0.00000000E+00
  0.00000000E+00  0.00000000E+00  0.00000000E+00
  0.00000000E+00  0.00000000E+00  0.00000000E+00
  0.00000000E+00  0.00000000E+00  0.00000000E+00
  0.00000000E+00  0.00000000E+00  0.00000000E+00
  0.00000000E+00  0.00000000E+00  0.00000000E+00
  0.00000000E+00  0.00000000E+00  0.00000000E+00
  0.00000000E+00  0.00000000E+00  0.00000000E+00
  0.00000000E+00  0.00000000E+00  0.00000000E+00
  0.00000000E+00  0.00000000E+00  0.00000000E+00
  0.00000000E+00  0.00000000E+00  0.00000000E+00
  0.00000000E+00  0.00000000E+00  0.00000000E+00
  0.00000000E+00  0.00000000E+00  0.00000000E+00
  0.00000000E+00  0.00000000E+00  0.00000000E+00
  0.00000000E+00  0.00000000E+00  0.00000000E+00
  0.00000000E+00  0.00000000E+00  0.00000000E+00
  0.00000000E+00  0.00000000E+00  0.00000000E+00
  0.00000000E+00  0.00000000E+00  0.00000000E+00
  0.00000000E+00  0.00000000E+00  0.00000000E+00
  0.00000000E+00  0.00000000E+00  0.00000000E+00
  0.00000000E+00  0.00000000E+00  0.00000000E+00
  0.00000000E+00  0.00000000E+00  0.00000000E+00
  0.00000000E+00  0.00000000E+00  0.00000000E+00
  0.00000000E+00  0.00000000E+00  0.00000000E+00
  0.00000000E+00  0.00000000E+00  0.00000000E+00
  0.00000000E+00  0.00000000E+00  0.00000000E+00
  0.00000000E+00  0.00000000E+00  0.00000000E+00
  0.00000000E+00  0.00000000E+00  0.00000000E+00
  0.00000000E+00  0.00000000E+00  0.00000000E+00
  0.00000000E+00  0.00000000E+00  0.00000000E+00
  0.00000000E+00  0.00000000E+00  0.00000000E+00
  0.00000000E+00  0.00000000E+00  0.00000000E+00
  0.00000000E+00  0.00000000E+00  0.00000000E+00
  0.00000000E+00  0.00000000E+00  0.00000000E+00
  0.00000000E+00  0.00000000E+00  0.00000000E+00
  0.00000000E+00  0.00000000E+00  0.00000000E+00
  0.00000000E+00  0.00000000E+00  0.00000000E+00
  0.00000000E+00  0.00000000E+00  0.00000000E+00
  0.00000000E+00  0.00000000E+00  0.00000000E+00
  0.00000000E+00  0.00000000E+00  0.00000000E+00
  0.00000000E+00  0.00000000E+00  0.00000000E+00
  0.00000000E+00  0.00000000E+00  0.00000000E+00
  0.00000000E+00  0.00000000E+00  0.00000000E+00
  0.00000000E+00  0.00000000E+00  0.00000000E+00
  0.00000000E+00  0.00000000E+00  0.00000000E+00
  0.00000000E+00  0.00000000E+00  0.00000000E+00
  0.00000000E+00  0.00000000E+00  0.00000000E+00
  0.00000000E+00  0.00000000E+00  0.00000000E+00
  0.00000000E+00  0.00000000E+00  0.00000000E+00
  0.00000000E+00  0.00000000E+00  0.00000000E+00
  0.00000000E+00  0.00000000E+00  0.00000000E+00
  0.00000000E+00  0.00000000E+00  0.00000000E+00
  0.00000000E+00  0.00000000E+00  0.00000000E+00
  0.00000000E+00  0.00000000E+00  0.00000000E+00
  0.00000000E+00  0.00000000E+00  0.00000000E+00
  0.00000000E+00  0.00000000E+00  0.00000000E+00
  0.00000000E+00  0.00000000E+00  0.00000000E+00
  0.00000000E+00  0.00000000E+00  0.00000000E+00
  0.00000000E+00  0.00000000E+00  0.00000000E+00
  0.00000000E+00  0.00000000E+00  0.00000000E+00
  0.00000000E+00  0.00000000E+00  0.00000000E+00
  0.00000000E+00  0.00000000E+00  0.00000000E+00
