K2 V8 O20                               
    1.000000000000000     
    11.7443730575937924   -0.0000000000000000   -0.2139581878284995
    -0.0000000000000002    3.7195492221745758    0.0000000000000002
     0.1169176700027892    0.0000000000000000    9.3551989409399123
   K    V    O 
     2     8    20
Direct
  0.4137311789948748  0.0000000000000000  0.5249825988295354
  0.0862688210051255  0.5000000000000000  0.4750174011704639
  0.0638549393466478  0.0000000000000000  0.8520956170225447
  0.9332263749219536  0.0000000000000000  0.1646223842744836
  0.5667736250780464  0.5000000000000000  0.8353776157255165
  0.4361450606533519  0.5000000000000000  0.1479043829774551
  0.7720741866831761  0.0000000000000000  0.8259265398484524
  0.2350214670263598  0.0000000000000000  0.1539688907987035
  0.2649785329736404  0.5000000000000000  0.8460311092012965
  0.7279258133168239  0.5000000000000000  0.1740734601515478
  0.6069079559671116  0.0000000000000000  0.8598003596267949
  0.4063320105089473  0.0000000000000000  0.1237879720753347
  0.0936679894910527  0.5000000000000000  0.8762120279246655
  0.8930920440328884  0.5000000000000000  0.1401996403732047
  0.9142053621954591  1.0000000000000000  0.9076309910480054
  0.0731596360415045  0.0000000000000000  0.0989544869980752
  0.4268403639584956  0.5000000000000000  0.9010455130019253
  0.5857946378045409  0.5000000000000000  0.0923690089519946
  0.2312350832319174  0.0000000000000000  0.8961240647544093
  0.7586986499732160  1.0000000000000000  0.1327307693403396
  0.7413013500267840  0.5000000000000000  0.8672692306596606
  0.2687649167680823  0.5000000000000000  0.1038759352455911
  0.0527926106798271  0.0000000000000000  0.6787217876058916
  0.9526410632392541  0.0000000000000000  0.3366789628560722
  0.5473589367607459  0.5000000000000000  0.6633210371439273
  0.4472073893201729  0.5000000000000000  0.3212782123941084
  0.7917516967370033  0.0000000000000000  0.6577664747506209
  0.2205374286796043  0.0000000000000000  0.3297401889819820
  0.2794625713203958  0.5000000000000000  0.6702598110180179
  0.7082483032629967  0.5000000000000000  0.3422335252493789
 
  0.00000000E+00  0.00000000E+00  0.00000000E+00
  0.00000000E+00  0.00000000E+00  0.00000000E+00
  0.00000000E+00  0.00000000E+00  0.00000000E+00
  0.00000000E+00  0.00000000E+00  0.00000000E+00
  0.00000000E+00  0.00000000E+00  0.00000000E+00
  0.00000000E+00  0.00000000E+00  0.00000000E+00
  0.00000000E+00  0.00000000E+00  0.00000000E+00
  0.00000000E+00  0.00000000E+00  0.00000000E+00
  0.00000000E+00  0.00000000E+00  0.00000000E+00
  0.00000000E+00  0.00000000E+00  0.00000000E+00
  0.00000000E+00  0.00000000E+00  0.00000000E+00
  0.00000000E+00  0.00000000E+00  0.00000000E+00
  0.00000000E+00  0.00000000E+00  0.00000000E+00
  0.00000000E+00  0.00000000E+00  0.00000000E+00
  0.00000000E+00  0.00000000E+00  0.00000000E+00
  0.00000000E+00  0.00000000E+00  0.00000000E+00
  0.00000000E+00  0.00000000E+00  0.00000000E+00
  0.00000000E+00  0.00000000E+00  0.00000000E+00
  0.00000000E+00  0.00000000E+00  0.00000000E+00
  0.00000000E+00  0.00000000E+00  0.00000000E+00
  0.00000000E+00  0.00000000E+00  0.00000000E+00
  0.00000000E+00  0.00000000E+00  0.00000000E+00
  0.00000000E+00  0.00000000E+00  0.00000000E+00
  0.00000000E+00  0.00000000E+00  0.00000000E+00
  0.00000000E+00  0.00000000E+00  0.00000000E+00
  0.00000000E+00  0.00000000E+00  0.00000000E+00
  0.00000000E+00  0.00000000E+00  0.00000000E+00
  0.00000000E+00  0.00000000E+00  0.00000000E+00
  0.00000000E+00  0.00000000E+00  0.00000000E+00
  0.00000000E+00  0.00000000E+00  0.00000000E+00
