Na2 C128 S2                             
   1.00000000000000     
     9.9127764890764176    0.0000000000000000    0.0000000000000006
    -4.9563882445382124    8.5847162615772934    0.0000000000000006
     0.0000000000000000    0.0000000000000000   34.1618118281680125
   Na   C    S 
     2   128     2
Selective dynamics
Direct
  0.3811357612497579  0.4674712031079677  0.7844857878592432   T   T   T
  0.8993702319046466 -0.0163862948306706  0.7710139251956323   T   T   T
  0.0000000000000000  0.0000000000000000  0.3125000000000000   F   F   F
  0.0000000000000000  0.2500000000000000  0.3125000000000000   F   F   F
  0.0000000000000000  0.5000000000000000  0.3125000000000000   F   F   F
  0.0000000000000000  0.7500000000000000  0.3125000000000000   F   F   F
  0.2500000000000000  0.0000000000000000  0.3125000000000000   F   F   F
  0.2500000000000000  0.2500000000000000  0.3125000000000000   F   F   F
  0.2500000000000000  0.5000000000000000  0.3125000000000000   F   F   F
  0.2500000000000000  0.7500000000000000  0.3125000000000000   F   F   F
  0.5000000000000000  0.0000000000000000  0.3125000000000000   F   F   F
  0.5000000000000000  0.2500000000000000  0.3125000000000000   F   F   F
  0.5000000000000000  0.5000000000000000  0.3125000000000000   F   F   F
  0.5000000000000000  0.7500000000000000  0.3125000000000000   F   F   F
  0.7500000000000000  0.0000000000000000  0.3125000000000000   F   F   F
  0.7500000000000000  0.2500000000000000  0.3125000000000000   F   F   F
  0.7500000000000000  0.5000000000000000  0.3125000000000000   F   F   F
  0.7500000000000000  0.7500000000000000  0.3125000000000000   F   F   F
  0.0000000000000000  0.0000000000000000  0.4375000000000000   F   F   F
  0.0000000000000000  0.2500000000000000  0.4375000000000000   F   F   F
  0.0000000000000000  0.5000000000000000  0.4375000000000000   F   F   F
  0.0000000000000000  0.7500000000000000  0.4375000000000000   F   F   F
  0.2500000000000000  0.0000000000000000  0.4375000000000000   F   F   F
  0.2500000000000000  0.2500000000000000  0.4375000000000000   F   F   F
  0.2500000000000000  0.5000000000000000  0.4375000000000000   F   F   F
  0.2500000000000000  0.7500000000000000  0.4375000000000000   F   F   F
  0.5000000000000000  0.0000000000000000  0.4375000000000000   F   F   F
  0.5000000000000000  0.2500000000000000  0.4375000000000000   F   F   F
  0.5000000000000000  0.5000000000000000  0.4375000000000000   F   F   F
  0.5000000000000000  0.7500000000000000  0.4375000000000000   F   F   F
  0.7500000000000000  0.0000000000000000  0.4375000000000000   F   F   F
  0.7500000000000000  0.2500000000000000  0.4375000000000000   F   F   F
  0.7500000000000000  0.5000000000000000  0.4375000000000000   F   F   F
  0.7500000000000000  0.7500000000000000  0.4375000000000000   F   F   F
  0.1666666666666643  0.0833333333333357  0.3125000000000000   F   F   F
  0.1666666666666643  0.3333333333333357  0.3125000000000000   F   F   F
  0.1666666666666643  0.5833333333333357  0.3125000000000000   F   F   F
  0.1666666666666643  0.8333333333333357  0.3125000000000000   F   F   F
  0.4166666666666643  0.0833333333333357  0.3125000000000000   F   F   F
  0.4166666666666643  0.3333333333333357  0.3125000000000000   F   F   F
  0.4166666666666643  0.5833333333333357  0.3125000000000000   F   F   F
  0.4166666666666643  0.8333333333333357  0.3125000000000000   F   F   F
  0.6666666666666643  0.0833333333333357  0.3125000000000000   F   F   F
  0.6666666666666643  0.3333333333333357  0.3125000000000000   F   F   F
  0.6666666666666643  0.5833333333333357  0.3125000000000000   F   F   F
  0.6666666666666643  0.8333333333333357  0.3125000000000000   F   F   F
  0.9166666666666643  0.0833333333333357  0.3125000000000000   F   F   F
  0.9166666666666643  0.3333333333333357  0.3125000000000000   F   F   F
  0.9166666666666643  0.5833333333333357  0.3125000000000000   F   F   F
  0.9166666666666643  0.8333333333333357  0.3125000000000000   F   F   F
  0.0833333333333357  0.1666666666666643  0.4375000000000000   F   F   F
  0.0833333333333357  0.4166666666666643  0.4375000000000000   F   F   F
  0.0833333333333357  0.6666666666666643  0.4375000000000000   F   F   F
  0.0833333333333357  0.9166666666666643  0.4375000000000000   F   F   F
  0.3333333333333357  0.1666666666666643  0.4375000000000000   F   F   F
  0.3333333333333357  0.4166666666666643  0.4375000000000000   F   F   F
  0.3333333333333357  0.6666666666666643  0.4375000000000000   F   F   F
  0.3333333333333357  0.9166666666666643  0.4375000000000000   F   F   F
  0.5833333333333357  0.1666666666666643  0.4375000000000000   F   F   F
  0.5833333333333357  0.4166666666666643  0.4375000000000000   F   F   F
  0.5833333333333357  0.6666666666666643  0.4375000000000000   F   F   F
  0.5833333333333357  0.9166666666666643  0.4375000000000000   F   F   F
  0.8333333333333357  0.1666666666666643  0.4375000000000000   F   F   F
  0.8333333333333357  0.4166666666666643  0.4375000000000000   F   F   F
  0.8333333333333357  0.6666666666666643  0.4375000000000000   F   F   F
  0.8333333333333357  0.9166666666666643  0.4375000000000000   F   F   F
  0.0000000000000000  0.0000000000000000  0.5625000000000000   F   F   F
  0.0000000000000000  0.2500000000000000  0.5625000000000000   F   F   F
  0.0000000000000000  0.5000000000000000  0.5625000000000000   F   F   F
  0.0000000000000000  0.7500000000000000  0.5625000000000000   F   F   F
  0.2500000000000000  0.0000000000000000  0.5625000000000000   F   F   F
  0.2500000000000000  0.2500000000000000  0.5625000000000000   F   F   F
  0.2500000000000000  0.5000000000000000  0.5625000000000000   F   F   F
  0.2500000000000000  0.7500000000000000  0.5625000000000000   F   F   F
  0.5000000000000000  0.0000000000000000  0.5625000000000000   F   F   F
  0.5000000000000000  0.2500000000000000  0.5625000000000000   F   F   F
  0.5000000000000000  0.5000000000000000  0.5625000000000000   F   F   F
  0.5000000000000000  0.7500000000000000  0.5625000000000000   F   F   F
  0.7500000000000000  0.0000000000000000  0.5625000000000000   F   F   F
  0.7500000000000000  0.2500000000000000  0.5625000000000000   F   F   F
  0.7500000000000000  0.5000000000000000  0.5625000000000000   F   F   F
  0.7500000000000000  0.7500000000000000  0.5625000000000000   F   F   F
 -0.0000085862465427  0.0004508939082561  0.6846054290527739   T   T   T
  0.0006373511537254  0.2502433097804451  0.6837190321611647   T   T   T
 -0.0001477284696615  0.4999984584107307  0.6849883545737506   T   T   T
 -0.0000400442262196  0.7500786636027845  0.6860472469818002   T   T   T
  0.2500472111489612  0.0002900772773961  0.6845952489384846   T   T   T
  0.2497774939710886  0.2495879826477362  0.6832051111762077   T   T   T
  0.2495278887536166  0.4998441480843066  0.6841947232699405   T   T   T
  0.2496753999588082  0.7497979988712619  0.6857190474820019   T   T   T
  0.4998196644487727  0.0004552190731227  0.6865270440179194   T   T   T
  0.5001262102236613  0.2502991836405837  0.6852376053963631   T   T   T
  0.4996965222906783  0.4998082801009868  0.6860033649148345   T   T   T
  0.5000791916045728  0.7500544208709886  0.6875109773833228   T   T   T
  0.7501273503500036  0.0007884096953005  0.6861424614311276   T   T   T
  0.7502979597477066  0.2503469070400350  0.6851493014979850   T   T   T
  0.7504244971531474  0.4994996434864303  0.6873460440890523   T   T   T
  0.7504081620153462  0.7498538636620352  0.6882196896838616   T   T   T
  0.1666666666666643  0.0833333333333357  0.5625000000000000   F   F   F
  0.1666666666666643  0.3333333333333357  0.5625000000000000   F   F   F
  0.1666666666666643  0.5833333333333357  0.5625000000000000   F   F   F
  0.1666666666666643  0.8333333333333357  0.5625000000000000   F   F   F
  0.4166666666666643  0.0833333333333357  0.5625000000000000   F   F   F
  0.4166666666666643  0.3333333333333357  0.5625000000000000   F   F   F
  0.4166666666666643  0.5833333333333357  0.5625000000000000   F   F   F
  0.4166666666666643  0.8333333333333357  0.5625000000000000   F   F   F
  0.6666666666666643  0.0833333333333357  0.5625000000000000   F   F   F
  0.6666666666666643  0.3333333333333357  0.5625000000000000   F   F   F
  0.6666666666666643  0.5833333333333357  0.5625000000000000   F   F   F
  0.6666666666666643  0.8333333333333357  0.5625000000000000   F   F   F
  0.9166666666666643  0.0833333333333357  0.5625000000000000   F   F   F
  0.9166666666666643  0.3333333333333357  0.5625000000000000   F   F   F
  0.9166666666666643  0.5833333333333357  0.5625000000000000   F   F   F
  0.9166666666666643  0.8333333333333357  0.5625000000000000   F   F   F
  0.0836420757870468  0.1673774278004967  0.6830135051171051   T   T   T
  0.0834644523590041  0.4170755686354683  0.6835724197179511   T   T   T
  0.0830887579647306  0.6667177850729031  0.6850033674668339   T   T   T
  0.0839099880322029  0.9169579382964054  0.6842748356188207   T   T   T
  0.3332325291307013  0.1668640286016716  0.6837487448062304   T   T   T
  0.3327340576269631  0.4164050578060547  0.6837567825973407   T   T   T
  0.3332453602126488  0.6669935844888536  0.6856734972522459   T   T   T
  0.3333786732640352  0.9170704414817364  0.6857463931758505   T   T   T
  0.5830914084041630  0.1663685813549204  0.6851491028743338   T   T   T
  0.5838197148912626  0.4173276705642040  0.6859936350438409   T   T   T
  0.5831517573311935  0.6667812863774248  0.6875277528227257   T   T   T
  0.5829505656584277  0.9166945929480448  0.6872623871125223   T   T   T
  0.8334330674673825  0.1669691615613355  0.6840168604806153   T   T   T
  0.8335515890914321  0.4172727567255367  0.6861084010904981   T   T   T
  0.8332182814402618  0.6661155840334511  0.6873563745236031   T   T   T
  0.8333928533916257  0.9170074655557945  0.6865235585005927   T   T   T
  0.2047059045615527  0.1588248332701925  0.7892129021268020   T   T   T
  0.0754564561093538  0.2867957099413581  0.7890766492551090   T   T   T
 
  0.00000000E+00  0.00000000E+00  0.00000000E+00
  0.00000000E+00  0.00000000E+00  0.00000000E+00
  0.00000000E+00  0.00000000E+00  0.00000000E+00
  0.00000000E+00  0.00000000E+00  0.00000000E+00
  0.00000000E+00  0.00000000E+00  0.00000000E+00
  0.00000000E+00  0.00000000E+00  0.00000000E+00
  0.00000000E+00  0.00000000E+00  0.00000000E+00
  0.00000000E+00  0.00000000E+00  0.00000000E+00
  0.00000000E+00  0.00000000E+00  0.00000000E+00
  0.00000000E+00  0.00000000E+00  0.00000000E+00
  0.00000000E+00  0.00000000E+00  0.00000000E+00
  0.00000000E+00  0.00000000E+00  0.00000000E+00
  0.00000000E+00  0.00000000E+00  0.00000000E+00
  0.00000000E+00  0.00000000E+00  0.00000000E+00
  0.00000000E+00  0.00000000E+00  0.00000000E+00
  0.00000000E+00  0.00000000E+00  0.00000000E+00
  0.00000000E+00  0.00000000E+00  0.00000000E+00
  0.00000000E+00  0.00000000E+00  0.00000000E+00
  0.00000000E+00  0.00000000E+00  0.00000000E+00
  0.00000000E+00  0.00000000E+00  0.00000000E+00
  0.00000000E+00  0.00000000E+00  0.00000000E+00
  0.00000000E+00  0.00000000E+00  0.00000000E+00
  0.00000000E+00  0.00000000E+00  0.00000000E+00
  0.00000000E+00  0.00000000E+00  0.00000000E+00
  0.00000000E+00  0.00000000E+00  0.00000000E+00
  0.00000000E+00  0.00000000E+00  0.00000000E+00
  0.00000000E+00  0.00000000E+00  0.00000000E+00
  0.00000000E+00  0.00000000E+00  0.00000000E+00
  0.00000000E+00  0.00000000E+00  0.00000000E+00
  0.00000000E+00  0.00000000E+00  0.00000000E+00
  0.00000000E+00  0.00000000E+00  0.00000000E+00
  0.00000000E+00  0.00000000E+00  0.00000000E+00
  0.00000000E+00  0.00000000E+00  0.00000000E+00
  0.00000000E+00  0.00000000E+00  0.00000000E+00
  0.00000000E+00  0.00000000E+00  0.00000000E+00
  0.00000000E+00  0.00000000E+00  0.00000000E+00
  0.00000000E+00  0.00000000E+00  0.00000000E+00
  0.00000000E+00  0.00000000E+00  0.00000000E+00
  0.00000000E+00  0.00000000E+00  0.00000000E+00
  0.00000000E+00  0.00000000E+00  0.00000000E+00
  0.00000000E+00  0.00000000E+00  0.00000000E+00
  0.00000000E+00  0.00000000E+00  0.00000000E+00
  0.00000000E+00  0.00000000E+00  0.00000000E+00
  0.00000000E+00  0.00000000E+00  0.00000000E+00
  0.00000000E+00  0.00000000E+00  0.00000000E+00
  0.00000000E+00  0.00000000E+00  0.00000000E+00
  0.00000000E+00  0.00000000E+00  0.00000000E+00
  0.00000000E+00  0.00000000E+00  0.00000000E+00
  0.00000000E+00  0.00000000E+00  0.00000000E+00
  0.00000000E+00  0.00000000E+00  0.00000000E+00
  0.00000000E+00  0.00000000E+00  0.00000000E+00
  0.00000000E+00  0.00000000E+00  0.00000000E+00
  0.00000000E+00  0.00000000E+00  0.00000000E+00
  0.00000000E+00  0.00000000E+00  0.00000000E+00
  0.00000000E+00  0.00000000E+00  0.00000000E+00
  0.00000000E+00  0.00000000E+00  0.00000000E+00
  0.00000000E+00  0.00000000E+00  0.00000000E+00
  0.00000000E+00  0.00000000E+00  0.00000000E+00
  0.00000000E+00  0.00000000E+00  0.00000000E+00
  0.00000000E+00  0.00000000E+00  0.00000000E+00
  0.00000000E+00  0.00000000E+00  0.00000000E+00
  0.00000000E+00  0.00000000E+00  0.00000000E+00
  0.00000000E+00  0.00000000E+00  0.00000000E+00
  0.00000000E+00  0.00000000E+00  0.00000000E+00
  0.00000000E+00  0.00000000E+00  0.00000000E+00
  0.00000000E+00  0.00000000E+00  0.00000000E+00
  0.00000000E+00  0.00000000E+00  0.00000000E+00
  0.00000000E+00  0.00000000E+00  0.00000000E+00
  0.00000000E+00  0.00000000E+00  0.00000000E+00
  0.00000000E+00  0.00000000E+00  0.00000000E+00
  0.00000000E+00  0.00000000E+00  0.00000000E+00
  0.00000000E+00  0.00000000E+00  0.00000000E+00
  0.00000000E+00  0.00000000E+00  0.00000000E+00
  0.00000000E+00  0.00000000E+00  0.00000000E+00
  0.00000000E+00  0.00000000E+00  0.00000000E+00
  0.00000000E+00  0.00000000E+00  0.00000000E+00
  0.00000000E+00  0.00000000E+00  0.00000000E+00
  0.00000000E+00  0.00000000E+00  0.00000000E+00
  0.00000000E+00  0.00000000E+00  0.00000000E+00
  0.00000000E+00  0.00000000E+00  0.00000000E+00
  0.00000000E+00  0.00000000E+00  0.00000000E+00
  0.00000000E+00  0.00000000E+00  0.00000000E+00
  0.00000000E+00  0.00000000E+00  0.00000000E+00
  0.00000000E+00  0.00000000E+00  0.00000000E+00
  0.00000000E+00  0.00000000E+00  0.00000000E+00
  0.00000000E+00  0.00000000E+00  0.00000000E+00
  0.00000000E+00  0.00000000E+00  0.00000000E+00
  0.00000000E+00  0.00000000E+00  0.00000000E+00
  0.00000000E+00  0.00000000E+00  0.00000000E+00
  0.00000000E+00  0.00000000E+00  0.00000000E+00
  0.00000000E+00  0.00000000E+00  0.00000000E+00
  0.00000000E+00  0.00000000E+00  0.00000000E+00
  0.00000000E+00  0.00000000E+00  0.00000000E+00
  0.00000000E+00  0.00000000E+00  0.00000000E+00
  0.00000000E+00  0.00000000E+00  0.00000000E+00
  0.00000000E+00  0.00000000E+00  0.00000000E+00
  0.00000000E+00  0.00000000E+00  0.00000000E+00
  0.00000000E+00  0.00000000E+00  0.00000000E+00
  0.00000000E+00  0.00000000E+00  0.00000000E+00
  0.00000000E+00  0.00000000E+00  0.00000000E+00
  0.00000000E+00  0.00000000E+00  0.00000000E+00
  0.00000000E+00  0.00000000E+00  0.00000000E+00
  0.00000000E+00  0.00000000E+00  0.00000000E+00
  0.00000000E+00  0.00000000E+00  0.00000000E+00
  0.00000000E+00  0.00000000E+00  0.00000000E+00
  0.00000000E+00  0.00000000E+00  0.00000000E+00
  0.00000000E+00  0.00000000E+00  0.00000000E+00
  0.00000000E+00  0.00000000E+00  0.00000000E+00
  0.00000000E+00  0.00000000E+00  0.00000000E+00
  0.00000000E+00  0.00000000E+00  0.00000000E+00
  0.00000000E+00  0.00000000E+00  0.00000000E+00
  0.00000000E+00  0.00000000E+00  0.00000000E+00
  0.00000000E+00  0.00000000E+00  0.00000000E+00
  0.00000000E+00  0.00000000E+00  0.00000000E+00
  0.00000000E+00  0.00000000E+00  0.00000000E+00
  0.00000000E+00  0.00000000E+00  0.00000000E+00
  0.00000000E+00  0.00000000E+00  0.00000000E+00
  0.00000000E+00  0.00000000E+00  0.00000000E+00
  0.00000000E+00  0.00000000E+00  0.00000000E+00
  0.00000000E+00  0.00000000E+00  0.00000000E+00
  0.00000000E+00  0.00000000E+00  0.00000000E+00
  0.00000000E+00  0.00000000E+00  0.00000000E+00
  0.00000000E+00  0.00000000E+00  0.00000000E+00
  0.00000000E+00  0.00000000E+00  0.00000000E+00
  0.00000000E+00  0.00000000E+00  0.00000000E+00
  0.00000000E+00  0.00000000E+00  0.00000000E+00
  0.00000000E+00  0.00000000E+00  0.00000000E+00
  0.00000000E+00  0.00000000E+00  0.00000000E+00
  0.00000000E+00  0.00000000E+00  0.00000000E+00
  0.00000000E+00  0.00000000E+00  0.00000000E+00
  0.00000000E+00  0.00000000E+00  0.00000000E+00
  0.00000000E+00  0.00000000E+00  0.00000000E+00
