Na2 C128 S1                             
   1.00000000000000     
     9.9127764890632299    0.0000000000000000    0.0000000000000006
    -4.9563882445316123    8.5847162615658750    0.0000000000000006
     0.0000000000000000    0.0000000000000000   34.1618119065403221
   Na   C    S 
     2   128     1
Selective dynamics
Direct
  0.1547347176709934  0.8651071576096343  0.7887605681488573   T   T   T
  0.8227343690370237  0.0987962450713154  0.7951532379184395   T   T   T
  0.0000000000000000  0.0000000000000000  0.3125000000000000   F   F   F
  0.0000000000000000  0.2500000000000000  0.3125000000000000   F   F   F
  0.0000000000000000  0.5000000000000000  0.3125000000000000   F   F   F
  0.0000000000000000  0.7500000000000000  0.3125000000000000   F   F   F
  0.2500000000000000  0.0000000000000000  0.3125000000000000   F   F   F
  0.2500000000000000  0.2500000000000000  0.3125000000000000   F   F   F
  0.2500000000000000  0.5000000000000000  0.3125000000000000   F   F   F
  0.2500000000000000  0.7500000000000000  0.3125000000000000   F   F   F
  0.5000000000000000  0.0000000000000000  0.3125000000000000   F   F   F
  0.5000000000000000  0.2500000000000000  0.3125000000000000   F   F   F
  0.5000000000000000  0.5000000000000000  0.3125000000000000   F   F   F
  0.5000000000000000  0.7500000000000000  0.3125000000000000   F   F   F
  0.7500000000000000  0.0000000000000000  0.3125000000000000   F   F   F
  0.7500000000000000  0.2500000000000000  0.3125000000000000   F   F   F
  0.7500000000000000  0.5000000000000000  0.3125000000000000   F   F   F
  0.7500000000000000  0.7500000000000000  0.3125000000000000   F   F   F
  0.0000000000000000  0.0000000000000000  0.4375000000000000   F   F   F
  0.0000000000000000  0.2500000000000000  0.4375000000000000   F   F   F
  0.0000000000000000  0.5000000000000000  0.4375000000000000   F   F   F
  0.0000000000000000  0.7500000000000000  0.4375000000000000   F   F   F
  0.2500000000000000  0.0000000000000000  0.4375000000000000   F   F   F
  0.2500000000000000  0.2500000000000000  0.4375000000000000   F   F   F
  0.2500000000000000  0.5000000000000000  0.4375000000000000   F   F   F
  0.2500000000000000  0.7500000000000000  0.4375000000000000   F   F   F
  0.5000000000000000  0.0000000000000000  0.4375000000000000   F   F   F
  0.5000000000000000  0.2500000000000000  0.4375000000000000   F   F   F
  0.5000000000000000  0.5000000000000000  0.4375000000000000   F   F   F
  0.5000000000000000  0.7500000000000000  0.4375000000000000   F   F   F
  0.7500000000000000  0.0000000000000000  0.4375000000000000   F   F   F
  0.7500000000000000  0.2500000000000000  0.4375000000000000   F   F   F
  0.7500000000000000  0.5000000000000000  0.4375000000000000   F   F   F
  0.7500000000000000  0.7500000000000000  0.4375000000000000   F   F   F
  0.1666666666666643  0.0833333333333357  0.3125000000000000   F   F   F
  0.1666666666666643  0.3333333333333357  0.3125000000000000   F   F   F
  0.1666666666666643  0.5833333333333357  0.3125000000000000   F   F   F
  0.1666666666666643  0.8333333333333357  0.3125000000000000   F   F   F
  0.4166666666666643  0.0833333333333357  0.3125000000000000   F   F   F
  0.4166666666666643  0.3333333333333357  0.3125000000000000   F   F   F
  0.4166666666666643  0.5833333333333357  0.3125000000000000   F   F   F
  0.4166666666666643  0.8333333333333357  0.3125000000000000   F   F   F
  0.6666666666666643  0.0833333333333357  0.3125000000000000   F   F   F
  0.6666666666666643  0.3333333333333357  0.3125000000000000   F   F   F
  0.6666666666666643  0.5833333333333357  0.3125000000000000   F   F   F
  0.6666666666666643  0.8333333333333357  0.3125000000000000   F   F   F
  0.9166666666666643  0.0833333333333357  0.3125000000000000   F   F   F
  0.9166666666666643  0.3333333333333357  0.3125000000000000   F   F   F
  0.9166666666666643  0.5833333333333357  0.3125000000000000   F   F   F
  0.9166666666666643  0.8333333333333357  0.3125000000000000   F   F   F
  0.0833333333333357  0.1666666666666643  0.4375000000000000   F   F   F
  0.0833333333333357  0.4166666666666643  0.4375000000000000   F   F   F
  0.0833333333333357  0.6666666666666643  0.4375000000000000   F   F   F
  0.0833333333333357  0.9166666666666643  0.4375000000000000   F   F   F
  0.3333333333333357  0.1666666666666643  0.4375000000000000   F   F   F
  0.3333333333333357  0.4166666666666643  0.4375000000000000   F   F   F
  0.3333333333333357  0.6666666666666643  0.4375000000000000   F   F   F
  0.3333333333333357  0.9166666666666643  0.4375000000000000   F   F   F
  0.5833333333333357  0.1666666666666643  0.4375000000000000   F   F   F
  0.5833333333333357  0.4166666666666643  0.4375000000000000   F   F   F
  0.5833333333333357  0.6666666666666643  0.4375000000000000   F   F   F
  0.5833333333333357  0.9166666666666643  0.4375000000000000   F   F   F
  0.8333333333333357  0.1666666666666643  0.4375000000000000   F   F   F
  0.8333333333333357  0.4166666666666643  0.4375000000000000   F   F   F
  0.8333333333333357  0.6666666666666643  0.4375000000000000   F   F   F
  0.8333333333333357  0.9166666666666643  0.4375000000000000   F   F   F
  0.0000000000000000  0.0000000000000000  0.5625000000000000   F   F   F
  0.0000000000000000  0.2500000000000000  0.5625000000000000   F   F   F
  0.0000000000000000  0.5000000000000000  0.5625000000000000   F   F   F
  0.0000000000000000  0.7500000000000000  0.5625000000000000   F   F   F
  0.2500000000000000  0.0000000000000000  0.5625000000000000   F   F   F
  0.2500000000000000  0.2500000000000000  0.5625000000000000   F   F   F
  0.2500000000000000  0.5000000000000000  0.5625000000000000   F   F   F
  0.2500000000000000  0.7500000000000000  0.5625000000000000   F   F   F
  0.5000000000000000  0.0000000000000000  0.5625000000000000   F   F   F
  0.5000000000000000  0.2500000000000000  0.5625000000000000   F   F   F
  0.5000000000000000  0.5000000000000000  0.5625000000000000   F   F   F
  0.5000000000000000  0.7500000000000000  0.5625000000000000   F   F   F
  0.7500000000000000  0.0000000000000000  0.5625000000000000   F   F   F
  0.7500000000000000  0.2500000000000000  0.5625000000000000   F   F   F
  0.7500000000000000  0.5000000000000000  0.5625000000000000   F   F   F
  0.7500000000000000  0.7500000000000000  0.5625000000000000   F   F   F
  0.0000125140993510  0.0000200413355823  0.6836184795680952   T   T   T
  0.0003980847883452  0.2499976010428867  0.6856068264548105   T   T   T
 -0.0003580255992668  0.4997441390336543  0.6876050489508244   T   T   T
  0.0001471284974620  0.7503243796741917  0.6856017845834703   T   T   T
  0.2496277090923145 -0.0001978972197864  0.6856502867245370   T   T   T
  0.2496782178319545  0.2499999875253660  0.6854914048932050   T   T   T
  0.2498025431137728  0.4995782334291282  0.6871537323778518   T   T   T
  0.2498735509171340  0.7501173880141555  0.6873598552698447   T   T   T
  0.5002019628215389  0.0003398165302549  0.6877246781938937   T   T   T
  0.4994180371064293  0.2498019290628656  0.6872852790384126   T   T   T
  0.5000703127271200  0.4998390821977435  0.6873176824744640   T   T   T
  0.5003470520398730  0.7501437260322646  0.6872230898454399   T   T   T
  0.7500238439670793 -0.0003504560419995  0.6856706536870336   T   T   T
  0.7502362627338972  0.2498108413929760  0.6875079073998440   T   T   T
  0.7501874715723984  0.5005310388704189  0.6872361643721017   T   T   T
  0.7500030116396956  0.7502600258622137  0.6855047488921094   T   T   T
  0.1666666666666643  0.0833333333333357  0.5625000000000000   F   F   F
  0.1666666666666643  0.3333333333333357  0.5625000000000000   F   F   F
  0.1666666666666643  0.5833333333333357  0.5625000000000000   F   F   F
  0.1666666666666643  0.8333333333333357  0.5625000000000000   F   F   F
  0.4166666666666643  0.0833333333333357  0.5625000000000000   F   F   F
  0.4166666666666643  0.3333333333333357  0.5625000000000000   F   F   F
  0.4166666666666643  0.5833333333333357  0.5625000000000000   F   F   F
  0.4166666666666643  0.8333333333333357  0.5625000000000000   F   F   F
  0.6666666666666643  0.0833333333333357  0.5625000000000000   F   F   F
  0.6666666666666643  0.3333333333333357  0.5625000000000000   F   F   F
  0.6666666666666643  0.5833333333333357  0.5625000000000000   F   F   F
  0.6666666666666643  0.8333333333333357  0.5625000000000000   F   F   F
  0.9166666666666643  0.0833333333333357  0.5625000000000000   F   F   F
  0.9166666666666643  0.3333333333333357  0.5625000000000000   F   F   F
  0.9166666666666643  0.5833333333333357  0.5625000000000000   F   F   F
  0.9166666666666643  0.8333333333333357  0.5625000000000000   F   F   F
  0.0836004191128453  0.1671174123732722  0.6841849374040653   T   T   T
  0.0830316358447718  0.4165460924711950  0.6867600670413346   T   T   T
  0.0829595028999729  0.6664630237010726  0.6868601195169678   T   T   T
  0.0834287818082432  0.9164951830660132  0.6841539604964583   T   T   T
  0.3328048513863798  0.1665933125288363  0.6862388023580218   T   T   T
  0.3335270182496362  0.4165404073580977  0.6866271006522052   T   T   T
  0.3333162526885713  0.6666267713029338  0.6872815364402136   T   T   T
  0.3335337373951508  0.9170063468955753  0.6869352130403584   T   T   T
  0.5832476705587619  0.1665842194610743  0.6873388697184715   T   T   T
  0.5831864185438982  0.4168547103087844  0.6871267642027781   T   T   T
  0.5834623634922510  0.6664396267115078  0.6866566916565895   T   T   T
  0.5833923699098029  0.9169553203715120  0.6868560180760038   T   T   T
  0.8336039244457714  0.1664708705709903  0.6864805621381365   T   T   T
  0.8334196026066686  0.4167596276682279  0.6872502833603076   T   T   T
  0.8334062328233296  0.6671522069724695  0.6862069386158309   T   T   T
  0.8329313865645862  0.9163917885587388  0.6841724148833760   T   T   T
  0.0087195539314516  0.0064474670956644  0.7837388647346583   T   T   T
 
  0.00000000E+00  0.00000000E+00  0.00000000E+00
  0.00000000E+00  0.00000000E+00  0.00000000E+00
  0.00000000E+00  0.00000000E+00  0.00000000E+00
  0.00000000E+00  0.00000000E+00  0.00000000E+00
  0.00000000E+00  0.00000000E+00  0.00000000E+00
  0.00000000E+00  0.00000000E+00  0.00000000E+00
  0.00000000E+00  0.00000000E+00  0.00000000E+00
  0.00000000E+00  0.00000000E+00  0.00000000E+00
  0.00000000E+00  0.00000000E+00  0.00000000E+00
  0.00000000E+00  0.00000000E+00  0.00000000E+00
  0.00000000E+00  0.00000000E+00  0.00000000E+00
  0.00000000E+00  0.00000000E+00  0.00000000E+00
  0.00000000E+00  0.00000000E+00  0.00000000E+00
  0.00000000E+00  0.00000000E+00  0.00000000E+00
  0.00000000E+00  0.00000000E+00  0.00000000E+00
  0.00000000E+00  0.00000000E+00  0.00000000E+00
  0.00000000E+00  0.00000000E+00  0.00000000E+00
  0.00000000E+00  0.00000000E+00  0.00000000E+00
  0.00000000E+00  0.00000000E+00  0.00000000E+00
  0.00000000E+00  0.00000000E+00  0.00000000E+00
  0.00000000E+00  0.00000000E+00  0.00000000E+00
  0.00000000E+00  0.00000000E+00  0.00000000E+00
  0.00000000E+00  0.00000000E+00  0.00000000E+00
  0.00000000E+00  0.00000000E+00  0.00000000E+00
  0.00000000E+00  0.00000000E+00  0.00000000E+00
  0.00000000E+00  0.00000000E+00  0.00000000E+00
  0.00000000E+00  0.00000000E+00  0.00000000E+00
  0.00000000E+00  0.00000000E+00  0.00000000E+00
  0.00000000E+00  0.00000000E+00  0.00000000E+00
  0.00000000E+00  0.00000000E+00  0.00000000E+00
  0.00000000E+00  0.00000000E+00  0.00000000E+00
  0.00000000E+00  0.00000000E+00  0.00000000E+00
  0.00000000E+00  0.00000000E+00  0.00000000E+00
  0.00000000E+00  0.00000000E+00  0.00000000E+00
  0.00000000E+00  0.00000000E+00  0.00000000E+00
  0.00000000E+00  0.00000000E+00  0.00000000E+00
  0.00000000E+00  0.00000000E+00  0.00000000E+00
  0.00000000E+00  0.00000000E+00  0.00000000E+00
  0.00000000E+00  0.00000000E+00  0.00000000E+00
  0.00000000E+00  0.00000000E+00  0.00000000E+00
  0.00000000E+00  0.00000000E+00  0.00000000E+00
  0.00000000E+00  0.00000000E+00  0.00000000E+00
  0.00000000E+00  0.00000000E+00  0.00000000E+00
  0.00000000E+00  0.00000000E+00  0.00000000E+00
  0.00000000E+00  0.00000000E+00  0.00000000E+00
  0.00000000E+00  0.00000000E+00  0.00000000E+00
  0.00000000E+00  0.00000000E+00  0.00000000E+00
  0.00000000E+00  0.00000000E+00  0.00000000E+00
  0.00000000E+00  0.00000000E+00  0.00000000E+00
  0.00000000E+00  0.00000000E+00  0.00000000E+00
  0.00000000E+00  0.00000000E+00  0.00000000E+00
  0.00000000E+00  0.00000000E+00  0.00000000E+00
  0.00000000E+00  0.00000000E+00  0.00000000E+00
  0.00000000E+00  0.00000000E+00  0.00000000E+00
  0.00000000E+00  0.00000000E+00  0.00000000E+00
  0.00000000E+00  0.00000000E+00  0.00000000E+00
  0.00000000E+00  0.00000000E+00  0.00000000E+00
  0.00000000E+00  0.00000000E+00  0.00000000E+00
  0.00000000E+00  0.00000000E+00  0.00000000E+00
  0.00000000E+00  0.00000000E+00  0.00000000E+00
  0.00000000E+00  0.00000000E+00  0.00000000E+00
  0.00000000E+00  0.00000000E+00  0.00000000E+00
  0.00000000E+00  0.00000000E+00  0.00000000E+00
  0.00000000E+00  0.00000000E+00  0.00000000E+00
  0.00000000E+00  0.00000000E+00  0.00000000E+00
  0.00000000E+00  0.00000000E+00  0.00000000E+00
  0.00000000E+00  0.00000000E+00  0.00000000E+00
  0.00000000E+00  0.00000000E+00  0.00000000E+00
  0.00000000E+00  0.00000000E+00  0.00000000E+00
  0.00000000E+00  0.00000000E+00  0.00000000E+00
  0.00000000E+00  0.00000000E+00  0.00000000E+00
  0.00000000E+00  0.00000000E+00  0.00000000E+00
  0.00000000E+00  0.00000000E+00  0.00000000E+00
  0.00000000E+00  0.00000000E+00  0.00000000E+00
  0.00000000E+00  0.00000000E+00  0.00000000E+00
  0.00000000E+00  0.00000000E+00  0.00000000E+00
  0.00000000E+00  0.00000000E+00  0.00000000E+00
  0.00000000E+00  0.00000000E+00  0.00000000E+00
  0.00000000E+00  0.00000000E+00  0.00000000E+00
  0.00000000E+00  0.00000000E+00  0.00000000E+00
  0.00000000E+00  0.00000000E+00  0.00000000E+00
  0.00000000E+00  0.00000000E+00  0.00000000E+00
  0.00000000E+00  0.00000000E+00  0.00000000E+00
  0.00000000E+00  0.00000000E+00  0.00000000E+00
  0.00000000E+00  0.00000000E+00  0.00000000E+00
  0.00000000E+00  0.00000000E+00  0.00000000E+00
  0.00000000E+00  0.00000000E+00  0.00000000E+00
  0.00000000E+00  0.00000000E+00  0.00000000E+00
  0.00000000E+00  0.00000000E+00  0.00000000E+00
  0.00000000E+00  0.00000000E+00  0.00000000E+00
  0.00000000E+00  0.00000000E+00  0.00000000E+00
  0.00000000E+00  0.00000000E+00  0.00000000E+00
  0.00000000E+00  0.00000000E+00  0.00000000E+00
  0.00000000E+00  0.00000000E+00  0.00000000E+00
  0.00000000E+00  0.00000000E+00  0.00000000E+00
  0.00000000E+00  0.00000000E+00  0.00000000E+00
  0.00000000E+00  0.00000000E+00  0.00000000E+00
  0.00000000E+00  0.00000000E+00  0.00000000E+00
  0.00000000E+00  0.00000000E+00  0.00000000E+00
  0.00000000E+00  0.00000000E+00  0.00000000E+00
  0.00000000E+00  0.00000000E+00  0.00000000E+00
  0.00000000E+00  0.00000000E+00  0.00000000E+00
  0.00000000E+00  0.00000000E+00  0.00000000E+00
  0.00000000E+00  0.00000000E+00  0.00000000E+00
  0.00000000E+00  0.00000000E+00  0.00000000E+00
  0.00000000E+00  0.00000000E+00  0.00000000E+00
  0.00000000E+00  0.00000000E+00  0.00000000E+00
  0.00000000E+00  0.00000000E+00  0.00000000E+00
  0.00000000E+00  0.00000000E+00  0.00000000E+00
  0.00000000E+00  0.00000000E+00  0.00000000E+00
  0.00000000E+00  0.00000000E+00  0.00000000E+00
  0.00000000E+00  0.00000000E+00  0.00000000E+00
  0.00000000E+00  0.00000000E+00  0.00000000E+00
  0.00000000E+00  0.00000000E+00  0.00000000E+00
  0.00000000E+00  0.00000000E+00  0.00000000E+00
  0.00000000E+00  0.00000000E+00  0.00000000E+00
  0.00000000E+00  0.00000000E+00  0.00000000E+00
  0.00000000E+00  0.00000000E+00  0.00000000E+00
  0.00000000E+00  0.00000000E+00  0.00000000E+00
  0.00000000E+00  0.00000000E+00  0.00000000E+00
  0.00000000E+00  0.00000000E+00  0.00000000E+00
  0.00000000E+00  0.00000000E+00  0.00000000E+00
  0.00000000E+00  0.00000000E+00  0.00000000E+00
  0.00000000E+00  0.00000000E+00  0.00000000E+00
  0.00000000E+00  0.00000000E+00  0.00000000E+00
  0.00000000E+00  0.00000000E+00  0.00000000E+00
  0.00000000E+00  0.00000000E+00  0.00000000E+00
  0.00000000E+00  0.00000000E+00  0.00000000E+00
  0.00000000E+00  0.00000000E+00  0.00000000E+00
  0.00000000E+00  0.00000000E+00  0.00000000E+00
  0.00000000E+00  0.00000000E+00  0.00000000E+00
