Na2 Fe80 Co48 S2                        
   1.00000000000000     
     9.9634609566234982    0.0000000000000000    0.0151289702272597
     3.3293508209599403    9.3783526594987556    0.0293803577450063
     0.0000000000000000    0.0000000000000000   32.5363995943291116
   Na   Fe   Co   S 
     2    80    48     2
Selective dynamics
Direct
  0.1031403962133438  0.6666770369999090  0.7989304796208951   T   T   T
  0.8918647900017600  0.3045116556167957  0.8007200579500925   T   T   T
 -0.0016862531668072  0.0020654495586528  0.7190595234759970   T   T   T
  0.1250000000000000  0.6250000000000000  0.2812500000000000   F   F   F
  0.2500000000000000  0.2500000000000000  0.3437500000000000   F   F   F
  0.3750000000000000  0.8750000000000000  0.4062500000000000   F   F   F
  0.5000000000000000  0.5000000000000000  0.4687500000000000   F   F   F
  0.6250000000000000  0.1250000000000000  0.5312500000000000   F   F   F
  0.7500000000000000  0.7500000000000000  0.5937500000000000   F   F   F
  0.8740755941290494  0.3768892563923671  0.6569689562517256   T   T   T
  0.8750000000000000  0.1250000000000000  0.2812500000000000   F   F   F
  0.0000000000000000  0.7500000000000000  0.3437500000000000   F   F   F
  0.1250000000000000  0.3750000000000000  0.4062500000000000   F   F   F
  0.2500000000000000  0.0000000000000000  0.4687500000000000   F   F   F
  0.3750000000000000  0.6250000000000000  0.5312500000000000   F   F   F
  0.5000000000000000  0.2500000000000000  0.5937500000000000   F   F   F
  0.6227708561147440  0.8767019691811834  0.6563913230954556   T   T   T
  0.7440185157053986  0.4981202124196609  0.7224319425455876   T   T   T
  0.5000000000000000  0.2500000000000000  0.3437500000000000   F   F   F
  0.6250000000000000  0.8750000000000000  0.4062500000000000   F   F   F
  0.7500000000000000  0.5000000000000000  0.4687500000000000   F   F   F
  0.8750000000000000  0.1250000000000000  0.5312500000000000   F   F   F
  0.0000000000000000  0.7500000000000000  0.5937500000000000   F   F   F
  0.1237984309537235  0.3757886582333330  0.6561555167426391   T   T   T
  0.2495819822269775 -0.0050746124495131  0.7182935498523141   T   T   T
  0.3750000000000000  0.6250000000000000  0.2812500000000000   F   F   F
  0.1249059120620544  0.8749059120620544  0.2812029560310236   F   F   F
  0.2499059120620544  0.4999059120620544  0.3437029560310236   F   F   F
  0.3749059120620544  0.1249059120620544  0.4062029560310236   F   F   F
  0.4999059120620544  0.7499059120620544  0.4687029560310236   F   F   F
  0.6249059120620544  0.3749059120620544  0.5312029560310236   F   F   F
  0.7499059120620544  0.9999059120620544  0.5937029560310236   F   F   F
  0.8720406819000928  0.6258615762137338  0.6565261332148633   T   T   T
  0.0028787751424563  0.2490698088794952  0.7182593025465768   T   T   T
  0.2500940879379456  0.0000940879379456  0.3437970439689764   F   F   F
  0.3750940879379456  0.6250940879379456  0.4062970439689764   F   F   F
  0.5000940879379456  0.2500940879379456  0.4687970439689764   F   F   F
  0.6250940879379456  0.8750940879379456  0.5312970439689764   F   F   F
  0.7500940879379456  0.5000940879379456  0.5937970439689764   F   F   F
  0.8753559348632940  0.1258768221834777  0.6565103484759112   T   T   T
 -0.0052306772056882  0.7542381559741006  0.7171858758982526   T   T   T
  0.1250940879379456  0.3750940879379456  0.2812970439689764   F   F   F
  0.7500000000000000  0.2500000000000000  0.3437500000000000   F   F   F
  0.8750000000000000  0.8750000000000000  0.4062500000000000   F   F   F
  0.0000000000000000  0.5000000000000000  0.4687500000000000   F   F   F
  0.1250000000000000  0.1250000000000000  0.5312500000000000   F   F   F
  0.2500000000000000  0.7500000000000000  0.5937500000000000   F   F   F
  0.3734852240589168  0.3747142110709664  0.6564645020858905   T   T   T
  0.4988453406658185  0.0002408393280460  0.7171806209647417   T   T   T
  0.6250000000000000  0.6250000000000000  0.2812500000000000   F   F   F
  0.6250000000000000  0.3750000000000000  0.4062500000000000   F   F   F
  0.7500000000000000  0.0000000000000000  0.4687500000000000   F   F   F
  0.8750000000000000  0.6250000000000000  0.5312500000000000   F   F   F
  0.0000000000000000  0.2500000000000000  0.5937500000000000   F   F   F
  0.1225510845216381  0.8756817440736905  0.6565652090159383   T   T   T
  0.2497782821892501  0.4977791243123068  0.7217699207489321   T   T   T
  0.3750000000000000  0.1250000000000000  0.2812500000000000   F   F   F
  0.5000000000000000  0.7500000000000000  0.3437500000000000   F   F   F
  0.0000000000000000  0.2500000000000000  0.3437500000000000   F   F   F
  0.1250000000000000  0.8750000000000000  0.4062500000000000   F   F   F
  0.2500000000000000  0.5000000000000000  0.4687500000000000   F   F   F
  0.3750000000000000  0.1250000000000000  0.5312500000000000   F   F   F
  0.5000000000000000  0.7500000000000000  0.5937500000000000   F   F   F
  0.6244021680833416  0.3764890596417387  0.6565828088692675   T   T   T
  0.7479137489866567  0.0026096743437737  0.7187561573265440   T   T   T
  0.8750000000000000  0.6250000000000000  0.2812500000000000   F   F   F
  0.8749059120620544  0.1249059120620544  0.4062029560310236   F   F   F
  0.9999059120620544  0.7499059120620544  0.4687029560310236   F   F   F
  0.1249059120620544  0.3749059120620544  0.5312029560310236   F   F   F
  0.2499059120620544  0.9999059120620544  0.5937029560310236   F   F   F
  0.3722955712688744  0.6247381908426065  0.6563834366991596   T   T   T
  0.5032503769545569  0.2507967882835798  0.7184486919567750   T   T   T
  0.6249059120620544  0.8749059120620544  0.2812029560310236   F   F   F
  0.7499059120620544  0.4999059120620544  0.3437029560310236   F   F   F
  0.7500940879379456  0.0000940879379456  0.3437970439689764   F   F   F
  0.8750940879379456  0.6250940879379456  0.4062970439689764   F   F   F
  0.0000940879379456  0.2500940879379456  0.4687970439689764   F   F   F
  0.1250940879379456  0.8750940879379456  0.5312970439689764   F   F   F
  0.2500940879379456  0.5000940879379456  0.5937970439689764   F   F   F
  0.3760293542010863  0.1231739002652830  0.6556868626080971   T   T   T
  0.4935281376807394  0.7492640554046915  0.7183058431224045   T   T   T
  0.6250940879379456  0.3750940879379456  0.2812970439689764   F   F   F
  0.1250000000000000  0.1250000000000000  0.2812500000000000   F   F   F
  0.2500000000000000  0.7500000000000000  0.3437500000000000   F   F   F
  0.3750000000000000  0.3750000000000000  0.4062500000000000   F   F   F
  0.5000000000000000  0.0000000000000000  0.4687500000000000   F   F   F
  0.6250000000000000  0.6250000000000000  0.5312500000000000   F   F   F
  0.7500000000000000  0.2500000000000000  0.5937500000000000   F   F   F
  0.8723036652788453  0.8767928400183780  0.6563091917853915   T   T   T
 -0.0039164409651235  0.5026208606338494  0.7201431071634815   T   T   T
  0.6245069445799984  0.1251643518066672  0.4063321759033371   F   F   F
  0.7495069445799984  0.7501643518066672  0.4688321759033371   F   F   F
  0.8745069445799984  0.3751643518066672  0.5313321759033371   F   F   F
  0.9995069445799984  0.0001643518066672  0.5938321759033371   F   F   F
  0.1225658905999927  0.6238262247740038  0.6568156398575895   T   T   T
  0.2541064770248140  0.2425011399855545  0.7156479476842948   T   T   T
  0.3745069445799913  0.8751643518066672  0.2813321759033371   F   F   F
  0.4995069445799984  0.5001643518066672  0.3438321759033371   F   F   F
  0.0004930554200016  0.9998356481933328  0.3436678240966629   F   F   F
  0.1254930554200016  0.6248356481933328  0.4061678240966629   F   F   F
  0.2504930554200016  0.2498356481933328  0.4686678240966629   F   F   F
  0.3754930554200016  0.8748356481933328  0.5311678240966629   F   F   F
  0.5004930554200016  0.4998356481933328  0.5936678240966629   F   F   F
  0.6251911856989149  0.1256178796991299  0.6560976354122368   T   T   T
  0.7443045207245729  0.7534520015324070  0.7173610164426503   T   T   T
  0.8754930554200016  0.3748356481933328  0.2811678240966629   F   F   F
  0.6250000000000000  0.1250000000000000  0.2812500000000000   F   F   F
  0.7500000000000000  0.7500000000000000  0.3437500000000000   F   F   F
  0.8750000000000000  0.3750000000000000  0.4062500000000000   F   F   F
  0.0000000000000000  0.0000000000000000  0.4687500000000000   F   F   F
  0.1250000000000000  0.6250000000000000  0.5312500000000000   F   F   F
  0.2500000000000000  0.2500000000000000  0.5937500000000000   F   F   F
  0.3737868234163290  0.8740060008311445  0.6562183309398726   T   T   T
  0.4956814756740183  0.4999592881334612  0.7154980111934492   T   T   T
  0.8745069445799984  0.8751643518066672  0.2813321759033371   F   F   F
  0.9995069445799984  0.5001643518066672  0.3438321759033371   F   F   F
  0.1245069445799984  0.1251643518066672  0.4063321759033371   F   F   F
  0.2495069445799984  0.7501643518066672  0.4688321759033371   F   F   F
  0.3745069445799984  0.3751643518066672  0.5313321759033371   F   F   F
  0.4995069445799984  0.0001643518066672  0.5938321759033371   F   F   F
  0.6241656100103360  0.6256605686377317  0.6569417979159239   T   T   T
  0.7534907796317476  0.2498678739689461  0.7162231350298924   T   T   T
  0.5004930554200016  0.9998356481933328  0.3436678240966629   F   F   F
  0.6254930554200016  0.6248356481933328  0.4061678240966629   F   F   F
  0.7504930554200016  0.2498356481933328  0.4686678240966629   F   F   F
  0.8754930554200016  0.8748356481933328  0.5311678240966629   F   F   F
  0.0004930554200016  0.4998356481933328  0.5936678240966629   F   F   F
  0.1255177482972675  0.1246252467187661  0.6561880330461758   T   T   T
  0.2433557600801191  0.7468563281465925  0.7160269281606267   T   T   T
  0.3754930554200016  0.3748356481933328  0.2811678240966629   F   F   F
  0.1605549813546229  0.3670761598037094  0.7705311515189256   T   T   T
  0.8286115705199368  0.6194859889216394  0.7724876044898882   T   T   T
 
  0.00000000E+00  0.00000000E+00  0.00000000E+00
  0.00000000E+00  0.00000000E+00  0.00000000E+00
  0.00000000E+00  0.00000000E+00  0.00000000E+00
  0.00000000E+00  0.00000000E+00  0.00000000E+00
  0.00000000E+00  0.00000000E+00  0.00000000E+00
  0.00000000E+00  0.00000000E+00  0.00000000E+00
  0.00000000E+00  0.00000000E+00  0.00000000E+00
  0.00000000E+00  0.00000000E+00  0.00000000E+00
  0.00000000E+00  0.00000000E+00  0.00000000E+00
  0.00000000E+00  0.00000000E+00  0.00000000E+00
  0.00000000E+00  0.00000000E+00  0.00000000E+00
  0.00000000E+00  0.00000000E+00  0.00000000E+00
  0.00000000E+00  0.00000000E+00  0.00000000E+00
  0.00000000E+00  0.00000000E+00  0.00000000E+00
  0.00000000E+00  0.00000000E+00  0.00000000E+00
  0.00000000E+00  0.00000000E+00  0.00000000E+00
  0.00000000E+00  0.00000000E+00  0.00000000E+00
  0.00000000E+00  0.00000000E+00  0.00000000E+00
  0.00000000E+00  0.00000000E+00  0.00000000E+00
  0.00000000E+00  0.00000000E+00  0.00000000E+00
  0.00000000E+00  0.00000000E+00  0.00000000E+00
  0.00000000E+00  0.00000000E+00  0.00000000E+00
  0.00000000E+00  0.00000000E+00  0.00000000E+00
  0.00000000E+00  0.00000000E+00  0.00000000E+00
  0.00000000E+00  0.00000000E+00  0.00000000E+00
  0.00000000E+00  0.00000000E+00  0.00000000E+00
  0.00000000E+00  0.00000000E+00  0.00000000E+00
  0.00000000E+00  0.00000000E+00  0.00000000E+00
  0.00000000E+00  0.00000000E+00  0.00000000E+00
  0.00000000E+00  0.00000000E+00  0.00000000E+00
  0.00000000E+00  0.00000000E+00  0.00000000E+00
  0.00000000E+00  0.00000000E+00  0.00000000E+00
  0.00000000E+00  0.00000000E+00  0.00000000E+00
  0.00000000E+00  0.00000000E+00  0.00000000E+00
  0.00000000E+00  0.00000000E+00  0.00000000E+00
  0.00000000E+00  0.00000000E+00  0.00000000E+00
  0.00000000E+00  0.00000000E+00  0.00000000E+00
  0.00000000E+00  0.00000000E+00  0.00000000E+00
  0.00000000E+00  0.00000000E+00  0.00000000E+00
  0.00000000E+00  0.00000000E+00  0.00000000E+00
  0.00000000E+00  0.00000000E+00  0.00000000E+00
  0.00000000E+00  0.00000000E+00  0.00000000E+00
  0.00000000E+00  0.00000000E+00  0.00000000E+00
  0.00000000E+00  0.00000000E+00  0.00000000E+00
  0.00000000E+00  0.00000000E+00  0.00000000E+00
  0.00000000E+00  0.00000000E+00  0.00000000E+00
  0.00000000E+00  0.00000000E+00  0.00000000E+00
  0.00000000E+00  0.00000000E+00  0.00000000E+00
  0.00000000E+00  0.00000000E+00  0.00000000E+00
  0.00000000E+00  0.00000000E+00  0.00000000E+00
  0.00000000E+00  0.00000000E+00  0.00000000E+00
  0.00000000E+00  0.00000000E+00  0.00000000E+00
  0.00000000E+00  0.00000000E+00  0.00000000E+00
  0.00000000E+00  0.00000000E+00  0.00000000E+00
  0.00000000E+00  0.00000000E+00  0.00000000E+00
  0.00000000E+00  0.00000000E+00  0.00000000E+00
  0.00000000E+00  0.00000000E+00  0.00000000E+00
  0.00000000E+00  0.00000000E+00  0.00000000E+00
  0.00000000E+00  0.00000000E+00  0.00000000E+00
  0.00000000E+00  0.00000000E+00  0.00000000E+00
  0.00000000E+00  0.00000000E+00  0.00000000E+00
  0.00000000E+00  0.00000000E+00  0.00000000E+00
  0.00000000E+00  0.00000000E+00  0.00000000E+00
  0.00000000E+00  0.00000000E+00  0.00000000E+00
  0.00000000E+00  0.00000000E+00  0.00000000E+00
  0.00000000E+00  0.00000000E+00  0.00000000E+00
  0.00000000E+00  0.00000000E+00  0.00000000E+00
  0.00000000E+00  0.00000000E+00  0.00000000E+00
  0.00000000E+00  0.00000000E+00  0.00000000E+00
  0.00000000E+00  0.00000000E+00  0.00000000E+00
  0.00000000E+00  0.00000000E+00  0.00000000E+00
  0.00000000E+00  0.00000000E+00  0.00000000E+00
  0.00000000E+00  0.00000000E+00  0.00000000E+00
  0.00000000E+00  0.00000000E+00  0.00000000E+00
  0.00000000E+00  0.00000000E+00  0.00000000E+00
  0.00000000E+00  0.00000000E+00  0.00000000E+00
  0.00000000E+00  0.00000000E+00  0.00000000E+00
  0.00000000E+00  0.00000000E+00  0.00000000E+00
  0.00000000E+00  0.00000000E+00  0.00000000E+00
  0.00000000E+00  0.00000000E+00  0.00000000E+00
  0.00000000E+00  0.00000000E+00  0.00000000E+00
  0.00000000E+00  0.00000000E+00  0.00000000E+00
  0.00000000E+00  0.00000000E+00  0.00000000E+00
  0.00000000E+00  0.00000000E+00  0.00000000E+00
  0.00000000E+00  0.00000000E+00  0.00000000E+00
  0.00000000E+00  0.00000000E+00  0.00000000E+00
  0.00000000E+00  0.00000000E+00  0.00000000E+00
  0.00000000E+00  0.00000000E+00  0.00000000E+00
  0.00000000E+00  0.00000000E+00  0.00000000E+00
  0.00000000E+00  0.00000000E+00  0.00000000E+00
  0.00000000E+00  0.00000000E+00  0.00000000E+00
  0.00000000E+00  0.00000000E+00  0.00000000E+00
  0.00000000E+00  0.00000000E+00  0.00000000E+00
  0.00000000E+00  0.00000000E+00  0.00000000E+00
  0.00000000E+00  0.00000000E+00  0.00000000E+00
  0.00000000E+00  0.00000000E+00  0.00000000E+00
  0.00000000E+00  0.00000000E+00  0.00000000E+00
  0.00000000E+00  0.00000000E+00  0.00000000E+00
  0.00000000E+00  0.00000000E+00  0.00000000E+00
  0.00000000E+00  0.00000000E+00  0.00000000E+00
  0.00000000E+00  0.00000000E+00  0.00000000E+00
  0.00000000E+00  0.00000000E+00  0.00000000E+00
  0.00000000E+00  0.00000000E+00  0.00000000E+00
  0.00000000E+00  0.00000000E+00  0.00000000E+00
  0.00000000E+00  0.00000000E+00  0.00000000E+00
  0.00000000E+00  0.00000000E+00  0.00000000E+00
  0.00000000E+00  0.00000000E+00  0.00000000E+00
  0.00000000E+00  0.00000000E+00  0.00000000E+00
  0.00000000E+00  0.00000000E+00  0.00000000E+00
  0.00000000E+00  0.00000000E+00  0.00000000E+00
  0.00000000E+00  0.00000000E+00  0.00000000E+00
  0.00000000E+00  0.00000000E+00  0.00000000E+00
  0.00000000E+00  0.00000000E+00  0.00000000E+00
  0.00000000E+00  0.00000000E+00  0.00000000E+00
  0.00000000E+00  0.00000000E+00  0.00000000E+00
  0.00000000E+00  0.00000000E+00  0.00000000E+00
  0.00000000E+00  0.00000000E+00  0.00000000E+00
  0.00000000E+00  0.00000000E+00  0.00000000E+00
  0.00000000E+00  0.00000000E+00  0.00000000E+00
  0.00000000E+00  0.00000000E+00  0.00000000E+00
  0.00000000E+00  0.00000000E+00  0.00000000E+00
  0.00000000E+00  0.00000000E+00  0.00000000E+00
  0.00000000E+00  0.00000000E+00  0.00000000E+00
  0.00000000E+00  0.00000000E+00  0.00000000E+00
  0.00000000E+00  0.00000000E+00  0.00000000E+00
  0.00000000E+00  0.00000000E+00  0.00000000E+00
  0.00000000E+00  0.00000000E+00  0.00000000E+00
  0.00000000E+00  0.00000000E+00  0.00000000E+00
  0.00000000E+00  0.00000000E+00  0.00000000E+00
  0.00000000E+00  0.00000000E+00  0.00000000E+00
  0.00000000E+00  0.00000000E+00  0.00000000E+00
  0.00000000E+00  0.00000000E+00  0.00000000E+00
