K12 V48 O119                            
   1.00000000000000     
    11.0554125600000006    0.0000000000000000    0.0000000000000007
    -0.0000000000000007   11.6356429800000001    0.0000000000000007
     0.0000000000000000    0.0000000000000000   18.6053069399999984
   K    V    O 
    12    48   119
Selective dynamics
Direct
  0.0025058231793556  0.5707037003873514  0.2504956659921395   T   T   T
  0.3333333333333357  0.5782537600000026  0.2500000000000000   F   F   F
  0.6666666666666643  0.5782537600000026  0.2500000000000000   F   F   F
  0.0000000000000000  0.4217462399999974  0.7500000000000000   F   F   F
  0.3333333333333357  0.4217462399999974  0.7500000000000000   F   F   F
  0.6666666666666643  0.4217462399999974  0.7500000000000000   F   F   F
  0.1723427598830018  0.0869290241859735  0.2452869059616244   T   T   T
  0.5000000000000000  0.0782537600000026  0.2500000000000000   F   F   F
  0.8297382803407286  0.0863558761301424  0.2433283508724938   T   T   T
  0.8333333333333357  0.9217462399999974  0.7500000000000000   F   F   F
  0.1666666666666643  0.9217462399999974  0.7500000000000000   F   F   F
  0.5000000000000000  0.9217462399999974  0.7500000000000000   F   F   F
  0.9989073211269976  0.9260232225160154  0.4462616495595931   T   T   T
  0.3304427213650155  0.9359021472783281  0.4196379006604979   T   T   T
  0.6644919554784061  0.9355834947941237  0.4210827695777895   T   T   T
 -0.0003397823798474  0.0738937702790450  0.5793214171689373   T   T   T
  0.3333333333333357  0.0652475199999998  0.5780133900000024   F   F   F
  0.6666666666666643  0.0652475199999998  0.5780133900000024   F   F   F
  0.9998206954984341  0.9367933331967907  0.0782237051649108   T   T   T
  0.3333333333333357  0.9347524800000002  0.0780133900000024   F   F   F
  0.6666666666666643  0.9347524800000002  0.0780133900000024   F   F   F
  0.0000000000000000  0.0652475199999998  0.9219866099999976   F   F   F
  0.3333333333333357  0.0652475199999998  0.9219866099999976   F   F   F
  0.6666666666666643  0.0652475199999998  0.9219866099999976   F   F   F
  0.1666666666666643  0.4347524800000002  0.4219866099999976   F   F   F
  0.5000000000000000  0.4347524800000002  0.4219866099999976   F   F   F
  0.8333333333333357  0.4347524800000002  0.4219866099999976   F   F   F
  0.8333333333333357  0.5652475199999998  0.5780133900000024   F   F   F
  0.1666666666666643  0.5652475199999998  0.5780133900000024   F   F   F
  0.5000000000000000  0.5652475199999998  0.5780133900000024   F   F   F
  0.8333333333333357  0.4347524800000002  0.0780133900000024   F   F   F
  0.1666666666666643  0.4347524800000002  0.0780133900000024   F   F   F
  0.5000000000000000  0.4347524800000002  0.0780133900000024   F   F   F
  0.8333333333333357  0.5652475199999998  0.9219866099999976   F   F   F
  0.1666666666666643  0.5652475199999998  0.9219866099999976   F   F   F
  0.5000000000000000  0.5652475199999998  0.9219866099999976   F   F   F
  0.9995568619947921  0.2270666480708129  0.4196477494918180   T   T   T
  0.3304214111881025  0.2306284824282155  0.4175998139935623   T   T   T
  0.6634174751172243  0.2312376641678122  0.4212648400849274   T   T   T
  0.9990007009848525  0.7647348734807502  0.5809343225023372   T   T   T
  0.3333333333333357  0.7686988499999998  0.5800612000000029   F   F   F
  0.6666666666666643  0.7686988499999998  0.5800612000000029   F   F   F
  0.0000000000000000  0.2313011500000002  0.0800612000000029   F   F   F
  0.3333333333333357  0.2313011500000002  0.0800612000000029   F   F   F
  0.6666666666666643  0.2313011500000002  0.0800612000000029   F   F   F
  0.0000000000000000  0.7686988499999998  0.9199387999999971   F   F   F
  0.3333333333333357  0.7686988499999998  0.9199387999999971   F   F   F
  0.6666666666666643  0.7686988499999998  0.9199387999999971   F   F   F
  0.8358903530921433  0.7290371545958212  0.4183502536123256   T   T   T
  0.1674096069601443  0.7281416271904939  0.4146023487861323   T   T   T
  0.5000000000000000  0.7313011500000002  0.4199387999999971   F   F   F
  0.8333333333333357  0.2686988499999998  0.5800612000000029   F   F   F
  0.1666666666666643  0.2686988499999998  0.5800612000000029   F   F   F
  0.5000000000000000  0.2686988499999998  0.5800612000000029   F   F   F
  0.8333333333333357  0.7313011500000002  0.0800612000000029   F   F   F
  0.1666666666666643  0.7313011500000002  0.0800612000000029   F   F   F
  0.5000000000000000  0.7313011500000002  0.0800612000000029   F   F   F
  0.8333333333333357  0.2686988499999998  0.9199387999999971   F   F   F
  0.1666666666666643  0.2686988499999998  0.9199387999999971   F   F   F
  0.5000000000000000  0.2686988499999998  0.9199387999999971   F   F   F
  0.9974792128992386  0.0881442497596429  0.4555686873267781   T   T   T
  0.3306662835996185  0.0760202706298237  0.4538379945294192   T   T   T
  0.6675078326699871  0.0826717954003373  0.4530965817315052   T   T   T
  0.0004368714300102  0.9188163493339475  0.5478165007678382   T   T   T
  0.3324583868542682  0.9168524794352334  0.5465330851388132   T   T   T
  0.6680532272871934  0.9228756257745059  0.5440295596892203   T   T   T
  0.0000000000000000  0.0801719600000013  0.0465899900000011   F   F   F
  0.3333333333333357  0.0801719600000013  0.0465899900000011   F   F   F
  0.6666666666666643  0.0801719600000013  0.0465899900000011   F   F   F
  0.0000000000000000  0.9198280399999987  0.9534100099999989   F   F   F
  0.3333333333333357  0.9198280399999987  0.9534100099999989   F   F   F
  0.6666666666666643  0.9198280399999987  0.9534100099999989   F   F   F
  0.8271029375530997  0.5818119630037848  0.4531364404416512   T   T   T
  0.1675161546090493  0.5771516746420743  0.4537705247805406   T   T   T
  0.5000000000000000  0.5801719600000013  0.4534100099999989   F   F   F
  0.8333333333333357  0.4198280399999987  0.5465899900000011   F   F   F
  0.1666666666666643  0.4198280399999987  0.5465899900000011   F   F   F
  0.5000000000000000  0.4198280399999987  0.5465899900000011   F   F   F
  0.8333333333333357  0.5801719600000013  0.0465899900000011   F   F   F
  0.1666666666666643  0.5801719600000013  0.0465899900000011   F   F   F
  0.5000000000000000  0.5801719600000013  0.0465899900000011   F   F   F
  0.1666666666666643  0.4198280399999987  0.9534100099999989   F   F   F
  0.5000000000000000  0.4198280399999987  0.9534100099999989   F   F   F
  0.8333333333333357  0.4198280399999987  0.9534100099999989   F   F   F
  0.9998909624863245  0.2376370221418219  0.5590076350907957   T   T   T
  0.3333333333333357  0.2404541200000025  0.5581898100000018   F   F   F
  0.6666666666666643  0.2404541200000025  0.5581898100000018   F   F   F
  0.9955240763016703  0.7496533531666189  0.4421836906539442   T   T   T
  0.3377496662786137  0.7595703569210674  0.4394854578569404   T   T   T
  0.6663823291425449  0.7621590306450098  0.4398781596042284   T   T   T
  0.0000000000000000  0.2404541200000025  0.9418101899999982   F   F   F
  0.3333333333333357  0.2404541200000025  0.9418101899999982   F   F   F
  0.6666666666666643  0.2404541200000025  0.9418101899999982   F   F   F
  0.0000000000000000  0.7595458799999975  0.0581898100000018   F   F   F
  0.3333333333333357  0.7595458799999975  0.0581898100000018   F   F   F
  0.6666666666666643  0.7595458799999975  0.0581898100000018   F   F   F
  0.8367557715951062  0.7413799465847707  0.5575379649926040   T   T   T
  0.1668559507382964  0.7408693005425491  0.5585599162641759   T   T   T
  0.5000000000000000  0.7404541200000025  0.5581898100000018   F   F   F
  0.8303640282114769  0.2625635974554287  0.4398550649779835   T   T   T
  0.1610891498873241  0.2626753499428703  0.4412573928511694   T   T   T
  0.5000000000000000  0.2595458799999975  0.4418101899999982   F   F   F
  0.8333333333333357  0.7404541200000025  0.9418101899999982   F   F   F
  0.1666666666666643  0.7404541200000025  0.9418101899999982   F   F   F
  0.5000000000000000  0.7404541200000025  0.9418101899999982   F   F   F
  0.8333333333333357  0.2595458799999975  0.0581898100000018   F   F   F
  0.1666666666666643  0.2595458799999975  0.0581898100000018   F   F   F
  0.5000000000000000  0.2595458799999975  0.0581898100000018   F   F   F
 -0.0005251437953788  0.2030048220639471  0.3339574367188326   T   T   T
  0.3314961138985086  0.2060801186335421  0.3318402792062468   T   T   T
  0.6635566742748465  0.2110893381570821  0.3358541671906461   T   T   T
  0.0000000000000000  0.7914145800000014  0.6656442000000027   F   F   F
  0.3333333333333357  0.7914145800000014  0.6656442000000027   F   F   F
  0.6666666666666643  0.7914145800000014  0.6656442000000027   F   F   F
  1.0002287822736846  0.2081222837718569  0.1661527814630580   T   T   T
  0.3333333333333357  0.2085854199999986  0.1656442000000027   F   F   F
  0.6666666666666643  0.2085854199999986  0.1656442000000027   F   F   F
  0.0000000000000000  0.7914145800000014  0.8343557999999973   F   F   F
  0.3333333333333357  0.7914145800000014  0.8343557999999973   F   F   F
  0.6666666666666643  0.7914145800000014  0.8343557999999973   F   F   F
  0.8345676258895405  0.7058208470677517  0.3331293516106858   T   T   T
  0.1652484520267252  0.7030158907399930  0.3289972343527056   T   T   T
  0.5000000000000000  0.7085854199999986  0.3343557999999973   F   F   F
  0.1666666666666643  0.2914145800000014  0.6656442000000027   F   F   F
  0.5000000000000000  0.2914145800000014  0.6656442000000027   F   F   F
  0.8333333333333357  0.2914145800000014  0.6656442000000027   F   F   F
  0.1657353378326232  0.7096582376208840  0.1652311580109166   T   T   T
  0.5000000000000000  0.7085854199999986  0.1656442000000027   F   F   F
  0.8344707462246298  0.7097935860536384  0.1653796422442749   T   T   T
  0.1666666666666643  0.2914145800000014  0.8343557999999973   F   F   F
  0.5000000000000000  0.2914145800000014  0.8343557999999973   F   F   F
  0.8333333333333357  0.2914145800000014  0.8343557999999973   F   F   F
 -0.0040089443184189  0.3984952838363169  0.4338197745995973   T   T   T
  0.3333333333333357  0.3994773000000009  0.4345246500000002   F   F   F
  0.6666666666666643  0.3994773000000009  0.4345246500000002   F   F   F
  0.0000000000000000  0.6005226999999991  0.5654753499999998   F   F   F
  0.3333333333333357  0.6005226999999991  0.5654753499999998   F   F   F
  0.6666666666666643  0.6005226999999991  0.5654753499999998   F   F   F
  0.0000000000000000  0.3994773000000009  0.0654753499999998   F   F   F
  0.3333333333333357  0.3994773000000009  0.0654753499999998   F   F   F
  0.6666666666666643  0.3994773000000009  0.0654753499999998   F   F   F
  0.0000000000000000  0.6005226999999991  0.9345246500000002   F   F   F
  0.3333333333333357  0.6005226999999991  0.9345246500000002   F   F   F
  0.6666666666666643  0.6005226999999991  0.9345246500000002   F   F   F
  0.8318285686938850  0.8972243300274149  0.4236837234834263   T   T   T
  0.1643183106816242  0.8975865691177844  0.4240162542440546   T   T   T
  0.5000000000000000  0.8994773000000009  0.4345246500000002   F   F   F
  0.1676900695594606  0.0972825653775963  0.5653170527362928   T   T   T
  0.5000000000000000  0.1005226999999991  0.5654753499999998   F   F   F
  0.8333360715061375  0.0985910228835206  0.5653501258887058   T   T   T
  0.8341238184601169  0.8958669863398797  0.0658131339999795   T   T   T
  0.1665719679014075  0.8964983856910871  0.0659604847146005   T   T   T
  0.5000000000000000  0.8994773000000009  0.0654753499999998   F   F   F
  0.8333333333333357  0.1005226999999991  0.9345246500000002   F   F   F
  0.1666666666666643  0.1005226999999991  0.9345246500000002   F   F   F
  0.5000000000000000  0.1005226999999991  0.9345246500000002   F   F   F
  0.3385392200507377  0.9547417276483814  0.3338338041668720   T   T   T
  0.6600958709526012  0.9578752026885090  0.3354757799018504   T   T   T
  0.0000000000000000  0.0469957999999977  0.6641710500000002   F   F   F
  0.3333333333333357  0.0469957999999977  0.6641710500000002   F   F   F
  0.6666666666666643  0.0469957999999977  0.6641710500000002   F   F   F
  0.9998638394950145  0.9535635337613347  0.1650390128560228   T   T   T
  0.3319578351248226  0.9537556263976548  0.1640740015331461   T   T   T
  0.6685186837634818  0.9533731183982271  0.1643025181824949   T   T   T
  0.0000000000000000  0.0469957999999977  0.8358289499999998   F   F   F
  0.3333333333333357  0.0469957999999977  0.8358289499999998   F   F   F
  0.6666666666666643  0.0469957999999977  0.8358289499999998   F   F   F
  0.8333333333333357  0.4530042000000023  0.3358289499999998   F   F   F
  0.1666666666666643  0.4530042000000023  0.3358289499999998   F   F   F
  0.5000000000000000  0.4530042000000023  0.3358289499999998   F   F   F
  0.8333333333333357  0.5469957999999977  0.6641710500000002   F   F   F
  0.1666666666666643  0.5469957999999977  0.6641710500000002   F   F   F
  0.5000000000000000  0.5469957999999977  0.6641710500000002   F   F   F
  0.8333333333333357  0.4530042000000023  0.1641710500000002   F   F   F
  0.1666666666666643  0.4530042000000023  0.1641710500000002   F   F   F
  0.5000000000000000  0.4530042000000023  0.1641710500000002   F   F   F
  0.8333333333333357  0.5469957999999977  0.8358289499999998   F   F   F
  0.1666666666666643  0.5469957999999977  0.8358289499999998   F   F   F
  0.5000000000000000  0.5469957999999977  0.8358289499999998   F   F   F
 
  0.00000000E+00  0.00000000E+00  0.00000000E+00
  0.00000000E+00  0.00000000E+00  0.00000000E+00
  0.00000000E+00  0.00000000E+00  0.00000000E+00
  0.00000000E+00  0.00000000E+00  0.00000000E+00
  0.00000000E+00  0.00000000E+00  0.00000000E+00
  0.00000000E+00  0.00000000E+00  0.00000000E+00
  0.00000000E+00  0.00000000E+00  0.00000000E+00
  0.00000000E+00  0.00000000E+00  0.00000000E+00
  0.00000000E+00  0.00000000E+00  0.00000000E+00
  0.00000000E+00  0.00000000E+00  0.00000000E+00
  0.00000000E+00  0.00000000E+00  0.00000000E+00
  0.00000000E+00  0.00000000E+00  0.00000000E+00
  0.00000000E+00  0.00000000E+00  0.00000000E+00
  0.00000000E+00  0.00000000E+00  0.00000000E+00
  0.00000000E+00  0.00000000E+00  0.00000000E+00
  0.00000000E+00  0.00000000E+00  0.00000000E+00
  0.00000000E+00  0.00000000E+00  0.00000000E+00
  0.00000000E+00  0.00000000E+00  0.00000000E+00
  0.00000000E+00  0.00000000E+00  0.00000000E+00
  0.00000000E+00  0.00000000E+00  0.00000000E+00
  0.00000000E+00  0.00000000E+00  0.00000000E+00
  0.00000000E+00  0.00000000E+00  0.00000000E+00
  0.00000000E+00  0.00000000E+00  0.00000000E+00
  0.00000000E+00  0.00000000E+00  0.00000000E+00
  0.00000000E+00  0.00000000E+00  0.00000000E+00
  0.00000000E+00  0.00000000E+00  0.00000000E+00
  0.00000000E+00  0.00000000E+00  0.00000000E+00
  0.00000000E+00  0.00000000E+00  0.00000000E+00
  0.00000000E+00  0.00000000E+00  0.00000000E+00
  0.00000000E+00  0.00000000E+00  0.00000000E+00
  0.00000000E+00  0.00000000E+00  0.00000000E+00
  0.00000000E+00  0.00000000E+00  0.00000000E+00
  0.00000000E+00  0.00000000E+00  0.00000000E+00
  0.00000000E+00  0.00000000E+00  0.00000000E+00
  0.00000000E+00  0.00000000E+00  0.00000000E+00
  0.00000000E+00  0.00000000E+00  0.00000000E+00
  0.00000000E+00  0.00000000E+00  0.00000000E+00
  0.00000000E+00  0.00000000E+00  0.00000000E+00
  0.00000000E+00  0.00000000E+00  0.00000000E+00
  0.00000000E+00  0.00000000E+00  0.00000000E+00
  0.00000000E+00  0.00000000E+00  0.00000000E+00
  0.00000000E+00  0.00000000E+00  0.00000000E+00
  0.00000000E+00  0.00000000E+00  0.00000000E+00
  0.00000000E+00  0.00000000E+00  0.00000000E+00
  0.00000000E+00  0.00000000E+00  0.00000000E+00
  0.00000000E+00  0.00000000E+00  0.00000000E+00
  0.00000000E+00  0.00000000E+00  0.00000000E+00
  0.00000000E+00  0.00000000E+00  0.00000000E+00
  0.00000000E+00  0.00000000E+00  0.00000000E+00
  0.00000000E+00  0.00000000E+00  0.00000000E+00
  0.00000000E+00  0.00000000E+00  0.00000000E+00
  0.00000000E+00  0.00000000E+00  0.00000000E+00
  0.00000000E+00  0.00000000E+00  0.00000000E+00
  0.00000000E+00  0.00000000E+00  0.00000000E+00
  0.00000000E+00  0.00000000E+00  0.00000000E+00
  0.00000000E+00  0.00000000E+00  0.00000000E+00
  0.00000000E+00  0.00000000E+00  0.00000000E+00
  0.00000000E+00  0.00000000E+00  0.00000000E+00
  0.00000000E+00  0.00000000E+00  0.00000000E+00
  0.00000000E+00  0.00000000E+00  0.00000000E+00
  0.00000000E+00  0.00000000E+00  0.00000000E+00
  0.00000000E+00  0.00000000E+00  0.00000000E+00
  0.00000000E+00  0.00000000E+00  0.00000000E+00
  0.00000000E+00  0.00000000E+00  0.00000000E+00
  0.00000000E+00  0.00000000E+00  0.00000000E+00
  0.00000000E+00  0.00000000E+00  0.00000000E+00
  0.00000000E+00  0.00000000E+00  0.00000000E+00
  0.00000000E+00  0.00000000E+00  0.00000000E+00
  0.00000000E+00  0.00000000E+00  0.00000000E+00
  0.00000000E+00  0.00000000E+00  0.00000000E+00
  0.00000000E+00  0.00000000E+00  0.00000000E+00
  0.00000000E+00  0.00000000E+00  0.00000000E+00
  0.00000000E+00  0.00000000E+00  0.00000000E+00
  0.00000000E+00  0.00000000E+00  0.00000000E+00
  0.00000000E+00  0.00000000E+00  0.00000000E+00
  0.00000000E+00  0.00000000E+00  0.00000000E+00
  0.00000000E+00  0.00000000E+00  0.00000000E+00
  0.00000000E+00  0.00000000E+00  0.00000000E+00
  0.00000000E+00  0.00000000E+00  0.00000000E+00
  0.00000000E+00  0.00000000E+00  0.00000000E+00
  0.00000000E+00  0.00000000E+00  0.00000000E+00
  0.00000000E+00  0.00000000E+00  0.00000000E+00
  0.00000000E+00  0.00000000E+00  0.00000000E+00
  0.00000000E+00  0.00000000E+00  0.00000000E+00
  0.00000000E+00  0.00000000E+00  0.00000000E+00
  0.00000000E+00  0.00000000E+00  0.00000000E+00
  0.00000000E+00  0.00000000E+00  0.00000000E+00
  0.00000000E+00  0.00000000E+00  0.00000000E+00
  0.00000000E+00  0.00000000E+00  0.00000000E+00
  0.00000000E+00  0.00000000E+00  0.00000000E+00
  0.00000000E+00  0.00000000E+00  0.00000000E+00
  0.00000000E+00  0.00000000E+00  0.00000000E+00
  0.00000000E+00  0.00000000E+00  0.00000000E+00
  0.00000000E+00  0.00000000E+00  0.00000000E+00
  0.00000000E+00  0.00000000E+00  0.00000000E+00
  0.00000000E+00  0.00000000E+00  0.00000000E+00
  0.00000000E+00  0.00000000E+00  0.00000000E+00
  0.00000000E+00  0.00000000E+00  0.00000000E+00
  0.00000000E+00  0.00000000E+00  0.00000000E+00
  0.00000000E+00  0.00000000E+00  0.00000000E+00
  0.00000000E+00  0.00000000E+00  0.00000000E+00
  0.00000000E+00  0.00000000E+00  0.00000000E+00
  0.00000000E+00  0.00000000E+00  0.00000000E+00
  0.00000000E+00  0.00000000E+00  0.00000000E+00
  0.00000000E+00  0.00000000E+00  0.00000000E+00
  0.00000000E+00  0.00000000E+00  0.00000000E+00
  0.00000000E+00  0.00000000E+00  0.00000000E+00
  0.00000000E+00  0.00000000E+00  0.00000000E+00
  0.00000000E+00  0.00000000E+00  0.00000000E+00
  0.00000000E+00  0.00000000E+00  0.00000000E+00
  0.00000000E+00  0.00000000E+00  0.00000000E+00
  0.00000000E+00  0.00000000E+00  0.00000000E+00
  0.00000000E+00  0.00000000E+00  0.00000000E+00
  0.00000000E+00  0.00000000E+00  0.00000000E+00
  0.00000000E+00  0.00000000E+00  0.00000000E+00
  0.00000000E+00  0.00000000E+00  0.00000000E+00
  0.00000000E+00  0.00000000E+00  0.00000000E+00
  0.00000000E+00  0.00000000E+00  0.00000000E+00
  0.00000000E+00  0.00000000E+00  0.00000000E+00
  0.00000000E+00  0.00000000E+00  0.00000000E+00
  0.00000000E+00  0.00000000E+00  0.00000000E+00
  0.00000000E+00  0.00000000E+00  0.00000000E+00
  0.00000000E+00  0.00000000E+00  0.00000000E+00
  0.00000000E+00  0.00000000E+00  0.00000000E+00
  0.00000000E+00  0.00000000E+00  0.00000000E+00
  0.00000000E+00  0.00000000E+00  0.00000000E+00
  0.00000000E+00  0.00000000E+00  0.00000000E+00
  0.00000000E+00  0.00000000E+00  0.00000000E+00
  0.00000000E+00  0.00000000E+00  0.00000000E+00
  0.00000000E+00  0.00000000E+00  0.00000000E+00
  0.00000000E+00  0.00000000E+00  0.00000000E+00
  0.00000000E+00  0.00000000E+00  0.00000000E+00
  0.00000000E+00  0.00000000E+00  0.00000000E+00
  0.00000000E+00  0.00000000E+00  0.00000000E+00
  0.00000000E+00  0.00000000E+00  0.00000000E+00
  0.00000000E+00  0.00000000E+00  0.00000000E+00
  0.00000000E+00  0.00000000E+00  0.00000000E+00
  0.00000000E+00  0.00000000E+00  0.00000000E+00
  0.00000000E+00  0.00000000E+00  0.00000000E+00
  0.00000000E+00  0.00000000E+00  0.00000000E+00
  0.00000000E+00  0.00000000E+00  0.00000000E+00
  0.00000000E+00  0.00000000E+00  0.00000000E+00
  0.00000000E+00  0.00000000E+00  0.00000000E+00
  0.00000000E+00  0.00000000E+00  0.00000000E+00
  0.00000000E+00  0.00000000E+00  0.00000000E+00
  0.00000000E+00  0.00000000E+00  0.00000000E+00
  0.00000000E+00  0.00000000E+00  0.00000000E+00
  0.00000000E+00  0.00000000E+00  0.00000000E+00
  0.00000000E+00  0.00000000E+00  0.00000000E+00
  0.00000000E+00  0.00000000E+00  0.00000000E+00
  0.00000000E+00  0.00000000E+00  0.00000000E+00
  0.00000000E+00  0.00000000E+00  0.00000000E+00
  0.00000000E+00  0.00000000E+00  0.00000000E+00
  0.00000000E+00  0.00000000E+00  0.00000000E+00
  0.00000000E+00  0.00000000E+00  0.00000000E+00
  0.00000000E+00  0.00000000E+00  0.00000000E+00
  0.00000000E+00  0.00000000E+00  0.00000000E+00
  0.00000000E+00  0.00000000E+00  0.00000000E+00
  0.00000000E+00  0.00000000E+00  0.00000000E+00
  0.00000000E+00  0.00000000E+00  0.00000000E+00
  0.00000000E+00  0.00000000E+00  0.00000000E+00
  0.00000000E+00  0.00000000E+00  0.00000000E+00
  0.00000000E+00  0.00000000E+00  0.00000000E+00
  0.00000000E+00  0.00000000E+00  0.00000000E+00
  0.00000000E+00  0.00000000E+00  0.00000000E+00
  0.00000000E+00  0.00000000E+00  0.00000000E+00
  0.00000000E+00  0.00000000E+00  0.00000000E+00
  0.00000000E+00  0.00000000E+00  0.00000000E+00
  0.00000000E+00  0.00000000E+00  0.00000000E+00
  0.00000000E+00  0.00000000E+00  0.00000000E+00
  0.00000000E+00  0.00000000E+00  0.00000000E+00
  0.00000000E+00  0.00000000E+00  0.00000000E+00
  0.00000000E+00  0.00000000E+00  0.00000000E+00
  0.00000000E+00  0.00000000E+00  0.00000000E+00
  0.00000000E+00  0.00000000E+00  0.00000000E+00
  0.00000000E+00  0.00000000E+00  0.00000000E+00
  0.00000000E+00  0.00000000E+00  0.00000000E+00
  0.00000000E+00  0.00000000E+00  0.00000000E+00
  0.00000000E+00  0.00000000E+00  0.00000000E+00
