Na2 Fe80 Co48 S2                        
   1.00000000000000     
     9.9634609566234982    0.0000000000000000    0.0151289702272597
     3.3293508209599403    9.3783526594987556    0.0293803577450063
     0.0000000000000000    0.0000000000000000   32.5363995943291116
   Na   Fe   Co   S 
     2    80    48     2
Selective dynamics
Direct
  0.3575594811416704  0.4110153927070999  0.7992225153831026   T   T   T
  0.1543570359717271  0.0521049702639181  0.8017124333838890   T   T   T
  0.0038381653380843  0.0006489901172782  0.7180192161868674   T   T   T
  0.1250000000000000  0.6250000000000000  0.2812500000000000   F   F   F
  0.2500000000000000  0.2500000000000000  0.3437500000000000   F   F   F
  0.3750000000000000  0.8750000000000000  0.4062500000000000   F   F   F
  0.5000000000000000  0.5000000000000000  0.4687500000000000   F   F   F
  0.6250000000000000  0.1250000000000000  0.5312500000000000   F   F   F
  0.7500000000000000  0.7500000000000000  0.5937500000000000   F   F   F
  0.8732410921686321  0.3769052637422940  0.6563569857682592   T   T   T
  0.8750000000000000  0.1250000000000000  0.2812500000000000   F   F   F
  0.0000000000000000  0.7500000000000000  0.3437500000000000   F   F   F
  0.1250000000000000  0.3750000000000000  0.4062500000000000   F   F   F
  0.2500000000000000  0.0000000000000000  0.4687500000000000   F   F   F
  0.3750000000000000  0.6250000000000000  0.5312500000000000   F   F   F
  0.5000000000000000  0.2500000000000000  0.5937500000000000   F   F   F
  0.6255457041714013  0.8729696644559072  0.6557906205930240   T   T   T
  0.7449255832199575  0.4997744450753852  0.7196630437309098   T   T   T
  0.5000000000000000  0.2500000000000000  0.3437500000000000   F   F   F
  0.6250000000000000  0.8750000000000000  0.4062500000000000   F   F   F
  0.7500000000000000  0.5000000000000000  0.4687500000000000   F   F   F
  0.8750000000000000  0.1250000000000000  0.5312500000000000   F   F   F
  0.0000000000000000  0.7500000000000000  0.5937500000000000   F   F   F
  0.1239969109955803  0.3747651878225827  0.6567788700364907   T   T   T
  0.2537206378352268 -0.0034395130003543  0.7176192887399668   T   T   T
  0.3750000000000000  0.6250000000000000  0.2812500000000000   F   F   F
  0.1249059120620544  0.8749059120620544  0.2812029560310236   F   F   F
  0.2499059120620544  0.4999059120620544  0.3437029560310236   F   F   F
  0.3749059120620544  0.1249059120620544  0.4062029560310236   F   F   F
  0.4999059120620544  0.7499059120620544  0.4687029560310236   F   F   F
  0.6249059120620544  0.3749059120620544  0.5312029560310236   F   F   F
  0.7499059120620544  0.9999059120620544  0.5937029560310236   F   F   F
  0.8730603433568298  0.6262920452743491  0.6559344537991755   T   T   T
  0.9932633016619206  0.2520090077953281  0.7217980680371892   T   T   T
  0.2500940879379456  0.0000940879379456  0.3437970439689764   F   F   F
  0.3750940879379456  0.6250940879379456  0.4062970439689764   F   F   F
  0.5000940879379456  0.2500940879379456  0.4687970439689764   F   F   F
  0.6250940879379456  0.8750940879379456  0.5312970439689764   F   F   F
  0.7500940879379456  0.5000940879379456  0.5937970439689764   F   F   F
  0.8756299940615231  0.1263159256418331  0.6570412274920578   T   T   T
 -0.0020692676971579  0.7487941647628155  0.7184178948157586   T   T   T
  0.1250940879379456  0.3750940879379456  0.2812970439689764   F   F   F
  0.7500000000000000  0.2500000000000000  0.3437500000000000   F   F   F
  0.8750000000000000  0.8750000000000000  0.4062500000000000   F   F   F
  0.0000000000000000  0.5000000000000000  0.4687500000000000   F   F   F
  0.1250000000000000  0.1250000000000000  0.5312500000000000   F   F   F
  0.2500000000000000  0.7500000000000000  0.5937500000000000   F   F   F
  0.3726674732426350  0.3738132107573373  0.6569790064244069   T   T   T
  0.5066271157145298 -0.0069835054662598  0.7178475204358250   T   T   T
  0.6250000000000000  0.6250000000000000  0.2812500000000000   F   F   F
  0.6250000000000000  0.3750000000000000  0.4062500000000000   F   F   F
  0.7500000000000000  0.0000000000000000  0.4687500000000000   F   F   F
  0.8750000000000000  0.6250000000000000  0.5312500000000000   F   F   F
  0.0000000000000000  0.2500000000000000  0.5937500000000000   F   F   F
  0.1245448801608447  0.8768116777308765  0.6564721496722226   T   T   T
  0.2457094549808495  0.5074029483494097  0.7180632832925828   T   T   T
  0.3750000000000000  0.1250000000000000  0.2812500000000000   F   F   F
  0.5000000000000000  0.7500000000000000  0.3437500000000000   F   F   F
  0.0000000000000000  0.2500000000000000  0.3437500000000000   F   F   F
  0.1250000000000000  0.8750000000000000  0.4062500000000000   F   F   F
  0.2500000000000000  0.5000000000000000  0.4687500000000000   F   F   F
  0.3750000000000000  0.1250000000000000  0.5312500000000000   F   F   F
  0.5000000000000000  0.7500000000000000  0.5937500000000000   F   F   F
  0.6238378664285115  0.3735214007317047  0.6567692552546668   T   T   T
  0.7524546278606385 -0.0017623485454417  0.7185385623487944   T   T   T
  0.8750000000000000  0.6250000000000000  0.2812500000000000   F   F   F
  0.8749059120620544  0.1249059120620544  0.4062029560310236   F   F   F
  0.9999059120620544  0.7499059120620544  0.4687029560310236   F   F   F
  0.1249059120620544  0.3749059120620544  0.5312029560310236   F   F   F
  0.2499059120620544  0.9999059120620544  0.5937029560310236   F   F   F
  0.3740745260758634  0.6236464102471277  0.6560471191525886   T   T   T
  0.5010827927200247  0.2492309222756189  0.7206257411806027   T   T   T
  0.6249059120620544  0.8749059120620544  0.2812029560310236   F   F   F
  0.7499059120620544  0.4999059120620544  0.3437029560310236   F   F   F
  0.7500940879379456  0.0000940879379456  0.3437970439689764   F   F   F
  0.8750940879379456  0.6250940879379456  0.4062970439689764   F   F   F
  0.0000940879379456  0.2500940879379456  0.4687970439689764   F   F   F
  0.1250940879379456  0.8750940879379456  0.5312970439689764   F   F   F
  0.2500940879379456  0.5000940879379456  0.5937970439689764   F   F   F
  0.3757221103210640  0.1236246631759685  0.6570183556773668   T   T   T
  0.4988256631524792  0.7471774917703460  0.7185531853806256   T   T   T
  0.6250940879379456  0.3750940879379456  0.2812970439689764   F   F   F
  0.1250000000000000  0.1250000000000000  0.2812500000000000   F   F   F
  0.2500000000000000  0.7500000000000000  0.3437500000000000   F   F   F
  0.3750000000000000  0.3750000000000000  0.4062500000000000   F   F   F
  0.5000000000000000  0.0000000000000000  0.4687500000000000   F   F   F
  0.6250000000000000  0.6250000000000000  0.5312500000000000   F   F   F
  0.7500000000000000  0.2500000000000000  0.5937500000000000   F   F   F
  0.8747846870844361  0.8772881208824610  0.6565294527661441   T   T   T
 -0.0045979435929938  0.5056410641388448  0.7153314802094337   T   T   T
  0.6245069445799984  0.1251643518066672  0.4063321759033371   F   F   F
  0.7495069445799984  0.7501643518066672  0.4688321759033371   F   F   F
  0.8745069445799984  0.3751643518066672  0.5313321759033371   F   F   F
  0.9995069445799984  0.0001643518066672  0.5938321759033371   F   F   F
  0.1220489589870887  0.6263319096883320  0.6556833717540804   T   T   T
  0.2462663786726642  0.2534076895328161  0.7210584681151010   T   T   T
  0.3745069445799913  0.8751643518066672  0.2813321759033371   F   F   F
  0.4995069445799984  0.5001643518066672  0.3438321759033371   F   F   F
  0.0004930554200016  0.9998356481933328  0.3436678240966629   F   F   F
  0.1254930554200016  0.6248356481933328  0.4061678240966629   F   F   F
  0.2504930554200016  0.2498356481933328  0.4686678240966629   F   F   F
  0.3754930554200016  0.8748356481933328  0.5311678240966629   F   F   F
  0.5004930554200016  0.4998356481933328  0.5936678240966629   F   F   F
  0.6241583453979451  0.1242305414396561  0.6567570328226928   T   T   T
  0.7469450481464583  0.7496966735660511  0.7146356949789787   T   T   T
  0.8754930554200016  0.3748356481933328  0.2811678240966629   F   F   F
  0.6250000000000000  0.1250000000000000  0.2812500000000000   F   F   F
  0.7500000000000000  0.7500000000000000  0.3437500000000000   F   F   F
  0.8750000000000000  0.3750000000000000  0.4062500000000000   F   F   F
  0.0000000000000000  0.0000000000000000  0.4687500000000000   F   F   F
  0.1250000000000000  0.6250000000000000  0.5312500000000000   F   F   F
  0.2500000000000000  0.2500000000000000  0.5937500000000000   F   F   F
  0.3764393568947302  0.8730808778476438  0.6563047852543671   T   T   T
  0.4943363500551433  0.4984343362547079  0.7159080271294069   T   T   T
  0.8745069445799984  0.8751643518066672  0.2813321759033371   F   F   F
  0.9995069445799984  0.5001643518066672  0.3438321759033371   F   F   F
  0.1245069445799984  0.1251643518066672  0.4063321759033371   F   F   F
  0.2495069445799984  0.7501643518066672  0.4688321759033371   F   F   F
  0.3745069445799984  0.3751643518066672  0.5313321759033371   F   F   F
  0.4995069445799984  0.0001643518066672  0.5938321759033371   F   F   F
  0.6234895198721496  0.6237285064436242  0.6568030941588647   T   T   T
  0.7506943985992542  0.2494774617265072  0.7161617588907649   T   T   T
  0.5004930554200016  0.9998356481933328  0.3436678240966629   F   F   F
  0.6254930554200016  0.6248356481933328  0.4061678240966629   F   F   F
  0.7504930554200016  0.2498356481933328  0.4686678240966629   F   F   F
  0.8754930554200016  0.8748356481933328  0.5311678240966629   F   F   F
  0.0004930554200016  0.4998356481933328  0.5936678240966629   F   F   F
  0.1255992567638009  0.1278647024464332  0.6571540509203305   T   T   T
  0.2462761198914581  0.7525513974448897  0.7155621280311646   T   T   T
  0.3754930554200016  0.3748356481933328  0.2811678240966629   F   F   F
  0.4073351423324059  0.1217939915861748  0.7712417120739044   T   T   T
  0.0761960311677204  0.3755083962330690  0.7712752193925855   T   T   T
 
  0.00000000E+00  0.00000000E+00  0.00000000E+00
  0.00000000E+00  0.00000000E+00  0.00000000E+00
  0.00000000E+00  0.00000000E+00  0.00000000E+00
  0.00000000E+00  0.00000000E+00  0.00000000E+00
  0.00000000E+00  0.00000000E+00  0.00000000E+00
  0.00000000E+00  0.00000000E+00  0.00000000E+00
  0.00000000E+00  0.00000000E+00  0.00000000E+00
  0.00000000E+00  0.00000000E+00  0.00000000E+00
  0.00000000E+00  0.00000000E+00  0.00000000E+00
  0.00000000E+00  0.00000000E+00  0.00000000E+00
  0.00000000E+00  0.00000000E+00  0.00000000E+00
  0.00000000E+00  0.00000000E+00  0.00000000E+00
  0.00000000E+00  0.00000000E+00  0.00000000E+00
  0.00000000E+00  0.00000000E+00  0.00000000E+00
  0.00000000E+00  0.00000000E+00  0.00000000E+00
  0.00000000E+00  0.00000000E+00  0.00000000E+00
  0.00000000E+00  0.00000000E+00  0.00000000E+00
  0.00000000E+00  0.00000000E+00  0.00000000E+00
  0.00000000E+00  0.00000000E+00  0.00000000E+00
  0.00000000E+00  0.00000000E+00  0.00000000E+00
  0.00000000E+00  0.00000000E+00  0.00000000E+00
  0.00000000E+00  0.00000000E+00  0.00000000E+00
  0.00000000E+00  0.00000000E+00  0.00000000E+00
  0.00000000E+00  0.00000000E+00  0.00000000E+00
  0.00000000E+00  0.00000000E+00  0.00000000E+00
  0.00000000E+00  0.00000000E+00  0.00000000E+00
  0.00000000E+00  0.00000000E+00  0.00000000E+00
  0.00000000E+00  0.00000000E+00  0.00000000E+00
  0.00000000E+00  0.00000000E+00  0.00000000E+00
  0.00000000E+00  0.00000000E+00  0.00000000E+00
  0.00000000E+00  0.00000000E+00  0.00000000E+00
  0.00000000E+00  0.00000000E+00  0.00000000E+00
  0.00000000E+00  0.00000000E+00  0.00000000E+00
  0.00000000E+00  0.00000000E+00  0.00000000E+00
  0.00000000E+00  0.00000000E+00  0.00000000E+00
  0.00000000E+00  0.00000000E+00  0.00000000E+00
  0.00000000E+00  0.00000000E+00  0.00000000E+00
  0.00000000E+00  0.00000000E+00  0.00000000E+00
  0.00000000E+00  0.00000000E+00  0.00000000E+00
  0.00000000E+00  0.00000000E+00  0.00000000E+00
  0.00000000E+00  0.00000000E+00  0.00000000E+00
  0.00000000E+00  0.00000000E+00  0.00000000E+00
  0.00000000E+00  0.00000000E+00  0.00000000E+00
  0.00000000E+00  0.00000000E+00  0.00000000E+00
  0.00000000E+00  0.00000000E+00  0.00000000E+00
  0.00000000E+00  0.00000000E+00  0.00000000E+00
  0.00000000E+00  0.00000000E+00  0.00000000E+00
  0.00000000E+00  0.00000000E+00  0.00000000E+00
  0.00000000E+00  0.00000000E+00  0.00000000E+00
  0.00000000E+00  0.00000000E+00  0.00000000E+00
  0.00000000E+00  0.00000000E+00  0.00000000E+00
  0.00000000E+00  0.00000000E+00  0.00000000E+00
  0.00000000E+00  0.00000000E+00  0.00000000E+00
  0.00000000E+00  0.00000000E+00  0.00000000E+00
  0.00000000E+00  0.00000000E+00  0.00000000E+00
  0.00000000E+00  0.00000000E+00  0.00000000E+00
  0.00000000E+00  0.00000000E+00  0.00000000E+00
  0.00000000E+00  0.00000000E+00  0.00000000E+00
  0.00000000E+00  0.00000000E+00  0.00000000E+00
  0.00000000E+00  0.00000000E+00  0.00000000E+00
  0.00000000E+00  0.00000000E+00  0.00000000E+00
  0.00000000E+00  0.00000000E+00  0.00000000E+00
  0.00000000E+00  0.00000000E+00  0.00000000E+00
  0.00000000E+00  0.00000000E+00  0.00000000E+00
  0.00000000E+00  0.00000000E+00  0.00000000E+00
  0.00000000E+00  0.00000000E+00  0.00000000E+00
  0.00000000E+00  0.00000000E+00  0.00000000E+00
  0.00000000E+00  0.00000000E+00  0.00000000E+00
  0.00000000E+00  0.00000000E+00  0.00000000E+00
  0.00000000E+00  0.00000000E+00  0.00000000E+00
  0.00000000E+00  0.00000000E+00  0.00000000E+00
  0.00000000E+00  0.00000000E+00  0.00000000E+00
  0.00000000E+00  0.00000000E+00  0.00000000E+00
  0.00000000E+00  0.00000000E+00  0.00000000E+00
  0.00000000E+00  0.00000000E+00  0.00000000E+00
  0.00000000E+00  0.00000000E+00  0.00000000E+00
  0.00000000E+00  0.00000000E+00  0.00000000E+00
  0.00000000E+00  0.00000000E+00  0.00000000E+00
  0.00000000E+00  0.00000000E+00  0.00000000E+00
  0.00000000E+00  0.00000000E+00  0.00000000E+00
  0.00000000E+00  0.00000000E+00  0.00000000E+00
  0.00000000E+00  0.00000000E+00  0.00000000E+00
  0.00000000E+00  0.00000000E+00  0.00000000E+00
  0.00000000E+00  0.00000000E+00  0.00000000E+00
  0.00000000E+00  0.00000000E+00  0.00000000E+00
  0.00000000E+00  0.00000000E+00  0.00000000E+00
  0.00000000E+00  0.00000000E+00  0.00000000E+00
  0.00000000E+00  0.00000000E+00  0.00000000E+00
  0.00000000E+00  0.00000000E+00  0.00000000E+00
  0.00000000E+00  0.00000000E+00  0.00000000E+00
  0.00000000E+00  0.00000000E+00  0.00000000E+00
  0.00000000E+00  0.00000000E+00  0.00000000E+00
  0.00000000E+00  0.00000000E+00  0.00000000E+00
  0.00000000E+00  0.00000000E+00  0.00000000E+00
  0.00000000E+00  0.00000000E+00  0.00000000E+00
  0.00000000E+00  0.00000000E+00  0.00000000E+00
  0.00000000E+00  0.00000000E+00  0.00000000E+00
  0.00000000E+00  0.00000000E+00  0.00000000E+00
  0.00000000E+00  0.00000000E+00  0.00000000E+00
  0.00000000E+00  0.00000000E+00  0.00000000E+00
  0.00000000E+00  0.00000000E+00  0.00000000E+00
  0.00000000E+00  0.00000000E+00  0.00000000E+00
  0.00000000E+00  0.00000000E+00  0.00000000E+00
  0.00000000E+00  0.00000000E+00  0.00000000E+00
  0.00000000E+00  0.00000000E+00  0.00000000E+00
  0.00000000E+00  0.00000000E+00  0.00000000E+00
  0.00000000E+00  0.00000000E+00  0.00000000E+00
  0.00000000E+00  0.00000000E+00  0.00000000E+00
  0.00000000E+00  0.00000000E+00  0.00000000E+00
  0.00000000E+00  0.00000000E+00  0.00000000E+00
  0.00000000E+00  0.00000000E+00  0.00000000E+00
  0.00000000E+00  0.00000000E+00  0.00000000E+00
  0.00000000E+00  0.00000000E+00  0.00000000E+00
  0.00000000E+00  0.00000000E+00  0.00000000E+00
  0.00000000E+00  0.00000000E+00  0.00000000E+00
  0.00000000E+00  0.00000000E+00  0.00000000E+00
  0.00000000E+00  0.00000000E+00  0.00000000E+00
  0.00000000E+00  0.00000000E+00  0.00000000E+00
  0.00000000E+00  0.00000000E+00  0.00000000E+00
  0.00000000E+00  0.00000000E+00  0.00000000E+00
  0.00000000E+00  0.00000000E+00  0.00000000E+00
  0.00000000E+00  0.00000000E+00  0.00000000E+00
  0.00000000E+00  0.00000000E+00  0.00000000E+00
  0.00000000E+00  0.00000000E+00  0.00000000E+00
  0.00000000E+00  0.00000000E+00  0.00000000E+00
  0.00000000E+00  0.00000000E+00  0.00000000E+00
  0.00000000E+00  0.00000000E+00  0.00000000E+00
  0.00000000E+00  0.00000000E+00  0.00000000E+00
  0.00000000E+00  0.00000000E+00  0.00000000E+00
  0.00000000E+00  0.00000000E+00  0.00000000E+00
  0.00000000E+00  0.00000000E+00  0.00000000E+00
  0.00000000E+00  0.00000000E+00  0.00000000E+00
