Na2 Zn96 S4                             
    1.000000000000000     
    10.5852331993876536    0.0000000000000000    0.0000000000000006
     2.6463082998469130   10.8709891436155033    4.5835404278260663
     0.0000000000000000    0.0000000000000000   27.5012425669564209
   Na   Zn   S 
     2    96     4
Selective dynamics
Direct
  0.2611727162319926  0.9026450374696735  0.8353955568413455   T   T   T
  0.1519209694733066  0.1951583256161797  0.8323581775476755   T   T   T
  0.1562500000000000  0.3750000000000000  0.2986111111111143   F   F   F
  0.1562500000000000  0.8750000000000000  0.2986111111111143   F   F   F
  0.4062500000000000  0.3750000000000000  0.2986111111111143   F   F   F
  0.4062500000000000  0.8750000000000000  0.2986111111111143   F   F   F
  0.6562500000000000  0.3750000000000000  0.2986111111111143   F   F   F
  0.6562500000000000  0.8750000000000000  0.2986111111111143   F   F   F
  0.9062500000000000  0.3750000000000000  0.2986111111111143   F   F   F
  0.9062500000000000  0.8750000000000000  0.2986111111111143   F   F   F
  0.0312500000000000  0.3750000000000000  0.3819444444444429   F   F   F
  0.0312500000000000  0.8750000000000000  0.3819444444444429   F   F   F
  0.2812500000000000  0.3750000000000000  0.3819444444444429   F   F   F
  0.2812500000000000  0.8750000000000000  0.3819444444444429   F   F   F
  0.5312500000000000  0.3750000000000000  0.3819444444444429   F   F   F
  0.5312500000000000  0.8750000000000000  0.3819444444444429   F   F   F
  0.7812500000000000  0.3750000000000000  0.3819444444444429   F   F   F
  0.7812500000000000  0.8750000000000000  0.3819444444444429   F   F   F
  0.0937500000000000  0.1250000000000000  0.3680555555555571   F   F   F
  0.0937500000000000  0.6250000000000000  0.3680555555555571   F   F   F
  0.3437500000000000  0.1250000000000000  0.3680555555555571   F   F   F
  0.3437500000000000  0.6250000000000000  0.3680555555555571   F   F   F
  0.5937500000000000  0.1250000000000000  0.3680555555555571   F   F   F
  0.5937500000000000  0.6250000000000000  0.3680555555555571   F   F   F
  0.8437500000000000  0.1250000000000000  0.3680555555555571   F   F   F
  0.8437500000000000  0.6250000000000000  0.3680555555555571   F   F   F
  0.2187500000000000  0.1250000000000000  0.2847222222222214   F   F   F
  0.2187500000000000  0.6250000000000000  0.2847222222222214   F   F   F
  0.4687500000000000  0.1250000000000000  0.2847222222222214   F   F   F
  0.4687500000000000  0.6250000000000000  0.2847222222222214   F   F   F
  0.7187500000000000  0.1250000000000000  0.2847222222222214   F   F   F
  0.7187500000000000  0.6250000000000000  0.2847222222222214   F   F   F
  0.9687500000000000  0.1250000000000000  0.2847222222222214   F   F   F
  0.9687500000000000  0.6250000000000000  0.2847222222222214   F   F   F
  0.1562500000000000  0.3750000000000000  0.4652777777777786   F   F   F
  0.1562500000000000  0.8750000000000000  0.4652777777777786   F   F   F
  0.4062500000000000  0.3750000000000000  0.4652777777777786   F   F   F
  0.4062500000000000  0.8750000000000000  0.4652777777777786   F   F   F
  0.6562500000000000  0.3750000000000000  0.4652777777777786   F   F   F
  0.6562500000000000  0.8750000000000000  0.4652777777777786   F   F   F
  0.9062500000000000  0.3750000000000000  0.4652777777777786   F   F   F
  0.9062500000000000  0.8750000000000000  0.4652777777777786   F   F   F
  0.0312500000000000  0.3750000000000000  0.5486111111111143   F   F   F
  0.0312500000000000  0.8750000000000000  0.5486111111111143   F   F   F
  0.2812500000000000  0.3750000000000000  0.5486111111111143   F   F   F
  0.2812500000000000  0.8750000000000000  0.5486111111111143   F   F   F
  0.5312500000000000  0.3750000000000000  0.5486111111111143   F   F   F
  0.5312500000000000  0.8750000000000000  0.5486111111111143   F   F   F
  0.7812500000000000  0.3750000000000000  0.5486111111111143   F   F   F
  0.7812500000000000  0.8750000000000000  0.5486111111111143   F   F   F
  0.0937500000000000  0.1250000000000000  0.5347222222222214   F   F   F
  0.0937500000000000  0.6250000000000000  0.5347222222222214   F   F   F
  0.3437500000000000  0.1250000000000000  0.5347222222222214   F   F   F
  0.3437500000000000  0.6250000000000000  0.5347222222222214   F   F   F
  0.5937500000000000  0.1250000000000000  0.5347222222222214   F   F   F
  0.5937500000000000  0.6250000000000000  0.5347222222222214   F   F   F
  0.8437500000000000  0.1250000000000000  0.5347222222222214   F   F   F
  0.8437500000000000  0.6250000000000000  0.5347222222222214   F   F   F
  0.2187500000000000  0.1250000000000000  0.4513888888888857   F   F   F
  0.2187500000000000  0.6250000000000000  0.4513888888888857   F   F   F
  0.4687500000000000  0.1250000000000000  0.4513888888888857   F   F   F
  0.4687500000000000  0.6250000000000000  0.4513888888888857   F   F   F
  0.7187500000000000  0.1250000000000000  0.4513888888888857   F   F   F
  0.7187500000000000  0.6250000000000000  0.4513888888888857   F   F   F
  0.9687500000000000  0.1250000000000000  0.4513888888888857   F   F   F
  0.9687500000000000  0.6250000000000000  0.4513888888888857   F   F   F
  0.1562750260118753  0.3834167906013480  0.6340550645721432   T   T   T
  0.1540141119029393  0.8789232744964615  0.6329549213743628   T   T   T
  0.4018795543534787  0.4054420568335459  0.6292567280969409   T   T   T
  0.3986433568112320  0.8950990561494838  0.6308976553067185   T   T   T
  0.6609544179972240  0.3648870952156311  0.6387291208108258   T   T   T
  0.6521216312168640  0.8869173957714671  0.6324553703962837   T   T   T
  0.8998832620555728  0.4033766237156867  0.6294570338112873   T   T   T
  0.8992292100744789  0.8953433723800097  0.6311347407565505   T   T   T
  0.0244331468220503  0.4177656448402918  0.7120384858175711   T   T   T
  0.0377848315081543  0.8323024999649028  0.7252252646992012   T   T   T
  0.2806087365008175  0.3938650309587960  0.7179283635195928   T   T   T
  0.2868422253361842  0.8377394669096672  0.7239754837552548   T   T   T
  0.5255679993005160  0.4208898493060054  0.7124111234778967   T   T   T
  0.5355580943899108  0.8395340605604047  0.7247396919760004   T   T   T
  0.7732244172312173  0.4206842406645819  0.7128862865949088   T   T   T
  0.7865287269046752  0.8371548978902036  0.7260758068619169   T   T   T
  0.1104717994343518  0.0476544034821834  0.7112219903508491   T   T   T
  0.0998445302674661  0.6194365539028106  0.7095038326490766   T   T   T
  0.3546658281679297  0.0506692989364529  0.7117755340537766   T   T   T
  0.3475136781067011  0.6160608027364622  0.7108415170253564   T   T   T
  0.6080117218035240  0.0495165181251889  0.7163645057411853   T   T   T
  0.5958918475803158  0.6288931544323163  0.7090424142245009   T   T   T
  0.8553615311067209  0.0414388163696871  0.7176662480156584   T   T   T
  0.8491419820722611  0.6222547967980057  0.7110769966649068   T   T   T
  0.2085019512190823  0.1509387756863798  0.6186865471299423   T   T   T
  0.2146481892155343  0.6445798295271599  0.6163870467780429   T   T   T
  0.4642805776124620  0.1356371649924823  0.6197779396868397   T   T   T
  0.4627005169731040  0.6543640732302949  0.6149996820931571   T   T   T
  0.7115027317587694  0.1436435657525187  0.6210739094209032   T   T   T
  0.7119812033491069  0.6541049366977889  0.6150970670744866   T   T   T
  0.9629828668109442  0.1332856420763802  0.6197895494217301   T   T   T
  0.9638132938621161  0.6493121283533128  0.6156652927972998   T   T   T
  0.0116565516800018  0.0176590677715452  0.8460123681748072   T   T   T
  0.4273132638132839  0.1544514258558834  0.7631738485899457   T   T   T
  0.4076170591732161  0.0621945639755342  0.8428411310622884   T   T   T
  0.9698430525721475  0.1311522428799366  0.7660384610352945   T   T   T
 
  0.00000000E+00  0.00000000E+00  0.00000000E+00
  0.00000000E+00  0.00000000E+00  0.00000000E+00
  0.00000000E+00  0.00000000E+00  0.00000000E+00
  0.00000000E+00  0.00000000E+00  0.00000000E+00
  0.00000000E+00  0.00000000E+00  0.00000000E+00
  0.00000000E+00  0.00000000E+00  0.00000000E+00
  0.00000000E+00  0.00000000E+00  0.00000000E+00
  0.00000000E+00  0.00000000E+00  0.00000000E+00
  0.00000000E+00  0.00000000E+00  0.00000000E+00
  0.00000000E+00  0.00000000E+00  0.00000000E+00
  0.00000000E+00  0.00000000E+00  0.00000000E+00
  0.00000000E+00  0.00000000E+00  0.00000000E+00
  0.00000000E+00  0.00000000E+00  0.00000000E+00
  0.00000000E+00  0.00000000E+00  0.00000000E+00
  0.00000000E+00  0.00000000E+00  0.00000000E+00
  0.00000000E+00  0.00000000E+00  0.00000000E+00
  0.00000000E+00  0.00000000E+00  0.00000000E+00
  0.00000000E+00  0.00000000E+00  0.00000000E+00
  0.00000000E+00  0.00000000E+00  0.00000000E+00
  0.00000000E+00  0.00000000E+00  0.00000000E+00
  0.00000000E+00  0.00000000E+00  0.00000000E+00
  0.00000000E+00  0.00000000E+00  0.00000000E+00
  0.00000000E+00  0.00000000E+00  0.00000000E+00
  0.00000000E+00  0.00000000E+00  0.00000000E+00
  0.00000000E+00  0.00000000E+00  0.00000000E+00
  0.00000000E+00  0.00000000E+00  0.00000000E+00
  0.00000000E+00  0.00000000E+00  0.00000000E+00
  0.00000000E+00  0.00000000E+00  0.00000000E+00
  0.00000000E+00  0.00000000E+00  0.00000000E+00
  0.00000000E+00  0.00000000E+00  0.00000000E+00
  0.00000000E+00  0.00000000E+00  0.00000000E+00
  0.00000000E+00  0.00000000E+00  0.00000000E+00
  0.00000000E+00  0.00000000E+00  0.00000000E+00
  0.00000000E+00  0.00000000E+00  0.00000000E+00
  0.00000000E+00  0.00000000E+00  0.00000000E+00
  0.00000000E+00  0.00000000E+00  0.00000000E+00
  0.00000000E+00  0.00000000E+00  0.00000000E+00
  0.00000000E+00  0.00000000E+00  0.00000000E+00
  0.00000000E+00  0.00000000E+00  0.00000000E+00
  0.00000000E+00  0.00000000E+00  0.00000000E+00
  0.00000000E+00  0.00000000E+00  0.00000000E+00
  0.00000000E+00  0.00000000E+00  0.00000000E+00
  0.00000000E+00  0.00000000E+00  0.00000000E+00
  0.00000000E+00  0.00000000E+00  0.00000000E+00
  0.00000000E+00  0.00000000E+00  0.00000000E+00
  0.00000000E+00  0.00000000E+00  0.00000000E+00
  0.00000000E+00  0.00000000E+00  0.00000000E+00
  0.00000000E+00  0.00000000E+00  0.00000000E+00
  0.00000000E+00  0.00000000E+00  0.00000000E+00
  0.00000000E+00  0.00000000E+00  0.00000000E+00
  0.00000000E+00  0.00000000E+00  0.00000000E+00
  0.00000000E+00  0.00000000E+00  0.00000000E+00
  0.00000000E+00  0.00000000E+00  0.00000000E+00
  0.00000000E+00  0.00000000E+00  0.00000000E+00
  0.00000000E+00  0.00000000E+00  0.00000000E+00
  0.00000000E+00  0.00000000E+00  0.00000000E+00
  0.00000000E+00  0.00000000E+00  0.00000000E+00
  0.00000000E+00  0.00000000E+00  0.00000000E+00
  0.00000000E+00  0.00000000E+00  0.00000000E+00
  0.00000000E+00  0.00000000E+00  0.00000000E+00
  0.00000000E+00  0.00000000E+00  0.00000000E+00
  0.00000000E+00  0.00000000E+00  0.00000000E+00
  0.00000000E+00  0.00000000E+00  0.00000000E+00
  0.00000000E+00  0.00000000E+00  0.00000000E+00
  0.00000000E+00  0.00000000E+00  0.00000000E+00
  0.00000000E+00  0.00000000E+00  0.00000000E+00
  0.00000000E+00  0.00000000E+00  0.00000000E+00
  0.00000000E+00  0.00000000E+00  0.00000000E+00
  0.00000000E+00  0.00000000E+00  0.00000000E+00
  0.00000000E+00  0.00000000E+00  0.00000000E+00
  0.00000000E+00  0.00000000E+00  0.00000000E+00
  0.00000000E+00  0.00000000E+00  0.00000000E+00
  0.00000000E+00  0.00000000E+00  0.00000000E+00
  0.00000000E+00  0.00000000E+00  0.00000000E+00
  0.00000000E+00  0.00000000E+00  0.00000000E+00
  0.00000000E+00  0.00000000E+00  0.00000000E+00
  0.00000000E+00  0.00000000E+00  0.00000000E+00
  0.00000000E+00  0.00000000E+00  0.00000000E+00
  0.00000000E+00  0.00000000E+00  0.00000000E+00
  0.00000000E+00  0.00000000E+00  0.00000000E+00
  0.00000000E+00  0.00000000E+00  0.00000000E+00
  0.00000000E+00  0.00000000E+00  0.00000000E+00
  0.00000000E+00  0.00000000E+00  0.00000000E+00
  0.00000000E+00  0.00000000E+00  0.00000000E+00
  0.00000000E+00  0.00000000E+00  0.00000000E+00
  0.00000000E+00  0.00000000E+00  0.00000000E+00
  0.00000000E+00  0.00000000E+00  0.00000000E+00
  0.00000000E+00  0.00000000E+00  0.00000000E+00
  0.00000000E+00  0.00000000E+00  0.00000000E+00
  0.00000000E+00  0.00000000E+00  0.00000000E+00
  0.00000000E+00  0.00000000E+00  0.00000000E+00
  0.00000000E+00  0.00000000E+00  0.00000000E+00
  0.00000000E+00  0.00000000E+00  0.00000000E+00
  0.00000000E+00  0.00000000E+00  0.00000000E+00
  0.00000000E+00  0.00000000E+00  0.00000000E+00
  0.00000000E+00  0.00000000E+00  0.00000000E+00
  0.00000000E+00  0.00000000E+00  0.00000000E+00
  0.00000000E+00  0.00000000E+00  0.00000000E+00
  0.00000000E+00  0.00000000E+00  0.00000000E+00
  0.00000000E+00  0.00000000E+00  0.00000000E+00
  0.00000000E+00  0.00000000E+00  0.00000000E+00
  0.00000000E+00  0.00000000E+00  0.00000000E+00
