Na2 Ni96 S8                             
   1.00000000000000     
    10.0131886729279387    0.0000000000000000    0.0000000000000006
     5.0065943364639658    8.6716757636421846    0.0000000000000006
     0.0000000000000000    0.0000000000000000   24.5272029468896875
   Na   Ni   S 
     2    96     8
Selective dynamics
Direct
  0.8508998073244866  0.4790566856706709  0.8720424473711933   T   T   T
  0.1950121371601943  0.4370705434018557  0.8985249577023411   T   T   T
  0.0000000000000000  0.0000000000000000  0.4583333333333357   F   F   F
  0.0000000000000000  0.5000000000000000  0.4583333333333357   F   F   F
  0.5000000000000000  0.0000000000000000  0.4583333333333357   F   F   F
  0.5000000000000000  0.5000000000000000  0.4583333333333357   F   F   F
  0.1666666666666643  0.1666666666666643  0.2916666666666643   F   F   F
  0.1666666666666643  0.6666666666666643  0.2916666666666643   F   F   F
  0.6666666666666643  0.1666666666666643  0.2916666666666643   F   F   F
  0.6666666666666643  0.6666666666666643  0.2916666666666643   F   F   F
  0.3333333333333357  0.3333333333333357  0.3750000000000000   F   F   F
  0.3333333333333357  0.8333333333333357  0.3750000000000000   F   F   F
  0.8333333333333357  0.3333333333333357  0.3750000000000000   F   F   F
  0.8333333333333357  0.8333333333333357  0.3750000000000000   F   F   F
  0.4166666666666643  0.4166666666666643  0.2916666666666643   F   F   F
  0.4166666666666643  0.9166666666666643  0.2916666666666643   F   F   F
  0.9166666666666643  0.4166666666666643  0.2916666666666643   F   F   F
  0.9166666666666643  0.9166666666666643  0.2916666666666643   F   F   F
  0.0833333333333357  0.0833333333333357  0.3750000000000000   F   F   F
  0.0833333333333357  0.5833333333333357  0.3750000000000000   F   F   F
  0.5833333333333357  0.0833333333333357  0.3750000000000000   F   F   F
  0.5833333333333357  0.5833333333333357  0.3750000000000000   F   F   F
  0.2500000000000000  0.2500000000000000  0.4583333333333357   F   F   F
  0.2500000000000000  0.7500000000000000  0.4583333333333357   F   F   F
  0.7500000000000000  0.2500000000000000  0.4583333333333357   F   F   F
  0.7500000000000000  0.7500000000000000  0.4583333333333357   F   F   F
  0.1666666666666643  0.4166666666666643  0.2916666666666643   F   F   F
  0.1666666666666643  0.9166666666666643  0.2916666666666643   F   F   F
  0.6666666666666643  0.4166666666666643  0.2916666666666643   F   F   F
  0.6666666666666643  0.9166666666666643  0.2916666666666643   F   F   F
  0.3333333333333357  0.0833333333333357  0.3750000000000000   F   F   F
  0.3333333333333357  0.5833333333333357  0.3750000000000000   F   F   F
  0.8333333333333357  0.0833333333333357  0.3750000000000000   F   F   F
  0.8333333333333357  0.5833333333333357  0.3750000000000000   F   F   F
  0.0000000000000000  0.2500000000000000  0.4583333333333357   F   F   F
  0.0000000000000000  0.7500000000000000  0.4583333333333357   F   F   F
  0.5000000000000000  0.2500000000000000  0.4583333333333357   F   F   F
  0.5000000000000000  0.7500000000000000  0.4583333333333357   F   F   F
  0.4166666666666643  0.1666666666666643  0.2916666666666643   F   F   F
  0.4166666666666643  0.6666666666666643  0.2916666666666643   F   F   F
  0.9166666666666643  0.1666666666666643  0.2916666666666643   F   F   F
  0.9166666666666643  0.6666666666666643  0.2916666666666643   F   F   F
  0.0833333333333357  0.3333333333333357  0.3750000000000000   F   F   F
  0.0833333333333357  0.8333333333333357  0.3750000000000000   F   F   F
  0.5833333333333357  0.3333333333333357  0.3750000000000000   F   F   F
  0.5833333333333357  0.8333333333333357  0.3750000000000000   F   F   F
  0.2500000000000000  0.5000000000000000  0.4583333333333357   F   F   F
  0.2500000000000000  0.0000000000000000  0.4583333333333357   F   F   F
  0.7500000000000000  0.5000000000000000  0.4583333333333357   F   F   F
  0.7500000000000000  0.0000000000000000  0.4583333333333357   F   F   F
  0.0011008667744850  0.0086816382914487  0.7107408919243687   T   T   T
  0.0035813824749465  0.5048569125332537  0.7240479570701579   T   T   T
  0.4960179344073790 -0.0017160121829404  0.7080646144695190   T   T   T
  0.4962576323640259  0.5048289999417312  0.7080045315001099   T   T   T
  0.1666666666666643  0.1666666666666643  0.5416666666666643   F   F   F
  0.1666666666666643  0.6666666666666643  0.5416666666666643   F   F   F
  0.6666666666666643  0.1666666666666643  0.5416666666666643   F   F   F
  0.6666666666666643  0.6666666666666643  0.5416666666666643   F   F   F
  0.3297265765950504  0.3373302045873713  0.6253255754577298   T   T   T
  0.3341497228472284  0.8338585168165069  0.6234109980403153   T   T   T
  0.8288939194141117  0.3379962460429007  0.6221099101363023   T   T   T
  0.8318015321674801  0.8364038891859306  0.6244889325873995   T   T   T
  0.4166666666666643  0.4166666666666643  0.5416666666666643   F   F   F
  0.4166666666666643  0.9166666666666643  0.5416666666666643   F   F   F
  0.9166666666666643  0.4166666666666643  0.5416666666666643   F   F   F
  0.9166666666666643  0.9166666666666643  0.5416666666666643   F   F   F
  0.0813108667078582  0.0869099847608447  0.6235594109049580   T   T   T
  0.0805074403959705  0.5874969635202741  0.6268886210497191   T   T   T
  0.5810971099157952  0.0849094168853901  0.6263439990667351   T   T   T
  0.5807572177058062  0.5860729912893557  0.6238273766730628   T   T   T
  0.2528260025318256  0.2418345304597824  0.7082624847901184   T   T   T
  0.2520967801856035  0.7545036427222300  0.7068210063496578   T   T   T
  0.7475947434209759  0.2517524413193436  0.7083297126926031   T   T   T
  0.7360929573618891  0.7583186199909264  0.7070574912723859   T   T   T
  0.1666666666666643  0.4166666666666643  0.5416666666666643   F   F   F
  0.1666666666666643  0.9166666666666643  0.5416666666666643   F   F   F
  0.6666666666666643  0.4166666666666643  0.5416666666666643   F   F   F
  0.6666666666666643  0.9166666666666643  0.5416666666666643   F   F   F
  0.3308943023962075  0.0883315965574031  0.6243733122454727   T   T   T
  0.3268144964749800  0.5872932170655280  0.6251819262104300   T   T   T
  0.8297104542297011  0.0870631008316412  0.6260786902481008   T   T   T
  0.8368024116727502  0.5841597674571175  0.6271847012847096   T   T   T
 -0.0039753974944076  0.2605371514020685  0.7022382913357925   T   T   T
  0.0006033167797370  0.7576911753614498  0.7127202982360633   T   T   T
  0.4992410934298406  0.2497900809024501  0.7089444811995144   T   T   T
  0.5011189884997113  0.7483387085905655  0.7073501671286823   T   T   T
  0.4166666666666643  0.1666666666666643  0.5416666666666643   F   F   F
  0.4166666666666643  0.6666666666666643  0.5416666666666643   F   F   F
  0.9166666666666643  0.1666666666666643  0.5416666666666643   F   F   F
  0.9166666666666643  0.6666666666666643  0.5416666666666643   F   F   F
  0.0818989402709213  0.3398753129661443  0.6241506856047803   T   T   T
  0.0778316060861202  0.8403232721029705  0.6262631661410268   T   T   T
  0.5794711195469541  0.3365108509391562  0.6262191530231386   T   T   T
  0.5834204986295811  0.8354316528105826  0.6248389535446628   T   T   T
  0.2565222726890095  0.5082520770739175  0.7120889863810282   T   T   T
  0.2539531956087825 -0.0042502012484098  0.7050413910895462   T   T   T
  0.7432036081742018  0.5015501951835213  0.7055618099399502   T   T   T
  0.7475649126608708  0.0002717583358853  0.7086865183389542   T   T   T
  0.1649103754539281  0.0886238325329060  0.8284198785461326   T   T   T
  0.2226042956219231  0.3866563610109118  0.7764960581030144   T   T   T
  0.9152364764060509  0.6219045215950310  0.9690950572053394   T   T   T
  0.1462820385313988  0.7367730400363836  0.9132330161348298   T   T   T
 -0.0462180957714588  0.1844958875891034  0.7780029769345032   T   T   T
  0.1167277087074739  0.1903209952672389  0.9027259420048033   T   T   T
  0.9357386451462628  0.8025790802005842  0.9417743450910894   T   T   T
  0.8818903120069029  0.7158172315285525  0.7764958611324235   T   T   T
 
  0.00000000E+00  0.00000000E+00  0.00000000E+00
  0.00000000E+00  0.00000000E+00  0.00000000E+00
  0.00000000E+00  0.00000000E+00  0.00000000E+00
  0.00000000E+00  0.00000000E+00  0.00000000E+00
  0.00000000E+00  0.00000000E+00  0.00000000E+00
  0.00000000E+00  0.00000000E+00  0.00000000E+00
  0.00000000E+00  0.00000000E+00  0.00000000E+00
  0.00000000E+00  0.00000000E+00  0.00000000E+00
  0.00000000E+00  0.00000000E+00  0.00000000E+00
  0.00000000E+00  0.00000000E+00  0.00000000E+00
  0.00000000E+00  0.00000000E+00  0.00000000E+00
  0.00000000E+00  0.00000000E+00  0.00000000E+00
  0.00000000E+00  0.00000000E+00  0.00000000E+00
  0.00000000E+00  0.00000000E+00  0.00000000E+00
  0.00000000E+00  0.00000000E+00  0.00000000E+00
  0.00000000E+00  0.00000000E+00  0.00000000E+00
  0.00000000E+00  0.00000000E+00  0.00000000E+00
  0.00000000E+00  0.00000000E+00  0.00000000E+00
  0.00000000E+00  0.00000000E+00  0.00000000E+00
  0.00000000E+00  0.00000000E+00  0.00000000E+00
  0.00000000E+00  0.00000000E+00  0.00000000E+00
  0.00000000E+00  0.00000000E+00  0.00000000E+00
  0.00000000E+00  0.00000000E+00  0.00000000E+00
  0.00000000E+00  0.00000000E+00  0.00000000E+00
  0.00000000E+00  0.00000000E+00  0.00000000E+00
  0.00000000E+00  0.00000000E+00  0.00000000E+00
  0.00000000E+00  0.00000000E+00  0.00000000E+00
  0.00000000E+00  0.00000000E+00  0.00000000E+00
  0.00000000E+00  0.00000000E+00  0.00000000E+00
  0.00000000E+00  0.00000000E+00  0.00000000E+00
  0.00000000E+00  0.00000000E+00  0.00000000E+00
  0.00000000E+00  0.00000000E+00  0.00000000E+00
  0.00000000E+00  0.00000000E+00  0.00000000E+00
  0.00000000E+00  0.00000000E+00  0.00000000E+00
  0.00000000E+00  0.00000000E+00  0.00000000E+00
  0.00000000E+00  0.00000000E+00  0.00000000E+00
  0.00000000E+00  0.00000000E+00  0.00000000E+00
  0.00000000E+00  0.00000000E+00  0.00000000E+00
  0.00000000E+00  0.00000000E+00  0.00000000E+00
  0.00000000E+00  0.00000000E+00  0.00000000E+00
  0.00000000E+00  0.00000000E+00  0.00000000E+00
  0.00000000E+00  0.00000000E+00  0.00000000E+00
  0.00000000E+00  0.00000000E+00  0.00000000E+00
  0.00000000E+00  0.00000000E+00  0.00000000E+00
  0.00000000E+00  0.00000000E+00  0.00000000E+00
  0.00000000E+00  0.00000000E+00  0.00000000E+00
  0.00000000E+00  0.00000000E+00  0.00000000E+00
  0.00000000E+00  0.00000000E+00  0.00000000E+00
  0.00000000E+00  0.00000000E+00  0.00000000E+00
  0.00000000E+00  0.00000000E+00  0.00000000E+00
  0.00000000E+00  0.00000000E+00  0.00000000E+00
  0.00000000E+00  0.00000000E+00  0.00000000E+00
  0.00000000E+00  0.00000000E+00  0.00000000E+00
  0.00000000E+00  0.00000000E+00  0.00000000E+00
  0.00000000E+00  0.00000000E+00  0.00000000E+00
  0.00000000E+00  0.00000000E+00  0.00000000E+00
  0.00000000E+00  0.00000000E+00  0.00000000E+00
  0.00000000E+00  0.00000000E+00  0.00000000E+00
  0.00000000E+00  0.00000000E+00  0.00000000E+00
  0.00000000E+00  0.00000000E+00  0.00000000E+00
  0.00000000E+00  0.00000000E+00  0.00000000E+00
  0.00000000E+00  0.00000000E+00  0.00000000E+00
  0.00000000E+00  0.00000000E+00  0.00000000E+00
  0.00000000E+00  0.00000000E+00  0.00000000E+00
  0.00000000E+00  0.00000000E+00  0.00000000E+00
  0.00000000E+00  0.00000000E+00  0.00000000E+00
  0.00000000E+00  0.00000000E+00  0.00000000E+00
  0.00000000E+00  0.00000000E+00  0.00000000E+00
  0.00000000E+00  0.00000000E+00  0.00000000E+00
  0.00000000E+00  0.00000000E+00  0.00000000E+00
  0.00000000E+00  0.00000000E+00  0.00000000E+00
  0.00000000E+00  0.00000000E+00  0.00000000E+00
  0.00000000E+00  0.00000000E+00  0.00000000E+00
  0.00000000E+00  0.00000000E+00  0.00000000E+00
  0.00000000E+00  0.00000000E+00  0.00000000E+00
  0.00000000E+00  0.00000000E+00  0.00000000E+00
  0.00000000E+00  0.00000000E+00  0.00000000E+00
  0.00000000E+00  0.00000000E+00  0.00000000E+00
  0.00000000E+00  0.00000000E+00  0.00000000E+00
  0.00000000E+00  0.00000000E+00  0.00000000E+00
  0.00000000E+00  0.00000000E+00  0.00000000E+00
  0.00000000E+00  0.00000000E+00  0.00000000E+00
  0.00000000E+00  0.00000000E+00  0.00000000E+00
  0.00000000E+00  0.00000000E+00  0.00000000E+00
  0.00000000E+00  0.00000000E+00  0.00000000E+00
  0.00000000E+00  0.00000000E+00  0.00000000E+00
  0.00000000E+00  0.00000000E+00  0.00000000E+00
  0.00000000E+00  0.00000000E+00  0.00000000E+00
  0.00000000E+00  0.00000000E+00  0.00000000E+00
  0.00000000E+00  0.00000000E+00  0.00000000E+00
  0.00000000E+00  0.00000000E+00  0.00000000E+00
  0.00000000E+00  0.00000000E+00  0.00000000E+00
  0.00000000E+00  0.00000000E+00  0.00000000E+00
  0.00000000E+00  0.00000000E+00  0.00000000E+00
  0.00000000E+00  0.00000000E+00  0.00000000E+00
  0.00000000E+00  0.00000000E+00  0.00000000E+00
  0.00000000E+00  0.00000000E+00  0.00000000E+00
  0.00000000E+00  0.00000000E+00  0.00000000E+00
  0.00000000E+00  0.00000000E+00  0.00000000E+00
  0.00000000E+00  0.00000000E+00  0.00000000E+00
  0.00000000E+00  0.00000000E+00  0.00000000E+00
  0.00000000E+00  0.00000000E+00  0.00000000E+00
  0.00000000E+00  0.00000000E+00  0.00000000E+00
  0.00000000E+00  0.00000000E+00  0.00000000E+00
  0.00000000E+00  0.00000000E+00  0.00000000E+00
  0.00000000E+00  0.00000000E+00  0.00000000E+00
