K2 V8 Zn1 O19                           
    1.000000000000000     
    11.8654779999999995    0.0000000000000000   -0.0247010000000000
     0.0000000000000000    3.7326980000000001    0.0000000000000000
     0.0000000000000000    0.0000000000000000    9.3174469999999996
   Zn   K    V    O 
     1     2     8    19
Direct
  0.4370108095862302  0.0000000000000000  0.9245516860446028
  0.4060484407124573  0.0000000000000000  0.5345658767154611
  0.0773032812112273  0.5000000000000000  0.4684807906252887
  0.0654393918336890  0.0000000000000000  0.8379229738962417
  0.9357157040174182  0.0000000000000000  0.1542768924493789
  0.5870496848884100  0.5000000000000000  0.7755747692566978
  0.4347274504911487  0.5000000000000000  0.1777862877961761
  0.7635807407613475  0.0000000000000000  0.9045509037142114
  0.2316566781733373  0.0000000000000000  0.1473527372364637
  0.2578515355627361  0.5000000000000000  0.8158712577147840
  0.7288929897356113  0.5000000000000000  0.1868801965625213
  0.5995471383779744  0.0000000000000000  0.8415247849058516
  0.4065735539424352  0.0000000000000000  0.1342151594460480
  0.1012601185524253  0.5000000000000000  0.8687573752594742
  0.8935461842162292  0.5000000000000000  0.1332241317464537
  0.9080596671650234  0.0000000000000000  0.8947189144204889
  0.0733985245989642  0.0000000000000000  0.0871531594274786
  0.4292183610712414  0.5000000000000000  0.8543663850072681
  0.5724907837558112  0.5000000000000000  0.1164233883689183
  0.2487831157783120  0.0000000000000000  0.8819411413952791
  0.7530805807013614  0.0000000000000000  0.1115129761090462
  0.7375475996612141  0.5000000000000000  0.8636895653582465
  0.2749291246593931  0.5000000000000000  0.1034228572079369
  0.0466011807712839  0.0000000000000000  0.6632965475475294
  0.9526448845521545  0.0000000000000000  0.3268371369632090
  0.5748384265836208  0.5000000000000000  0.6019860664698231
  0.4357644722402252  0.5000000000000000  0.3505790701110360
  0.2133464915555160  0.0000000000000000  0.3219499811805703
  0.2648217538701391  0.5000000000000000  0.6387491615501482
  0.7235800452587708  0.5000000000000000  0.3584868255133447
 
  0.00000000E+00  0.00000000E+00  0.00000000E+00
  0.00000000E+00  0.00000000E+00  0.00000000E+00
  0.00000000E+00  0.00000000E+00  0.00000000E+00
  0.00000000E+00  0.00000000E+00  0.00000000E+00
  0.00000000E+00  0.00000000E+00  0.00000000E+00
  0.00000000E+00  0.00000000E+00  0.00000000E+00
  0.00000000E+00  0.00000000E+00  0.00000000E+00
  0.00000000E+00  0.00000000E+00  0.00000000E+00
  0.00000000E+00  0.00000000E+00  0.00000000E+00
  0.00000000E+00  0.00000000E+00  0.00000000E+00
  0.00000000E+00  0.00000000E+00  0.00000000E+00
  0.00000000E+00  0.00000000E+00  0.00000000E+00
  0.00000000E+00  0.00000000E+00  0.00000000E+00
  0.00000000E+00  0.00000000E+00  0.00000000E+00
  0.00000000E+00  0.00000000E+00  0.00000000E+00
  0.00000000E+00  0.00000000E+00  0.00000000E+00
  0.00000000E+00  0.00000000E+00  0.00000000E+00
  0.00000000E+00  0.00000000E+00  0.00000000E+00
  0.00000000E+00  0.00000000E+00  0.00000000E+00
  0.00000000E+00  0.00000000E+00  0.00000000E+00
  0.00000000E+00  0.00000000E+00  0.00000000E+00
  0.00000000E+00  0.00000000E+00  0.00000000E+00
  0.00000000E+00  0.00000000E+00  0.00000000E+00
  0.00000000E+00  0.00000000E+00  0.00000000E+00
  0.00000000E+00  0.00000000E+00  0.00000000E+00
  0.00000000E+00  0.00000000E+00  0.00000000E+00
  0.00000000E+00  0.00000000E+00  0.00000000E+00
  0.00000000E+00  0.00000000E+00  0.00000000E+00
  0.00000000E+00  0.00000000E+00  0.00000000E+00
  0.00000000E+00  0.00000000E+00  0.00000000E+00
