Na2 Ag96 S4                             
   1.00000000000000     
    11.9587698670437579    0.0000000000000000    0.0000000000000007
     5.9793849335218763   10.3565985028717495    0.0000000000000007
     0.0000000000000000    0.0000000000000000   29.2928841256282375
   Na   Ag   S 
     2    96     4
Selective dynamics
Direct
  0.3178384435585416  0.2015213746464249  0.8418126449431627   T   T   T
  0.0291832699091843  0.4649619031912234  0.8530903219091299   T   T   T
  0.0000000000000000  0.0000000000000000  0.4583333333333357   F   F   F
  0.0000000000000000  0.5000000000000000  0.4583333333333357   F   F   F
  0.5000000000000000  0.0000000000000000  0.4583333333333357   F   F   F
  0.5000000000000000  0.5000000000000000  0.4583333333333357   F   F   F
  0.1666666666666643  0.1666666666666643  0.2916666666666643   F   F   F
  0.1666666666666643  0.6666666666666643  0.2916666666666643   F   F   F
  0.6666666666666643  0.1666666666666643  0.2916666666666643   F   F   F
  0.6666666666666643  0.6666666666666643  0.2916666666666643   F   F   F
  0.3333333333333357  0.3333333333333357  0.3750000000000000   F   F   F
  0.3333333333333357  0.8333333333333357  0.3750000000000000   F   F   F
  0.8333333333333357  0.3333333333333357  0.3750000000000000   F   F   F
  0.8333333333333357  0.8333333333333357  0.3750000000000000   F   F   F
  0.4166666666666643  0.4166666666666643  0.2916666666666643   F   F   F
  0.4166666666666643  0.9166666666666643  0.2916666666666643   F   F   F
  0.9166666666666643  0.4166666666666643  0.2916666666666643   F   F   F
  0.9166666666666643  0.9166666666666643  0.2916666666666643   F   F   F
  0.0833333333333357  0.0833333333333357  0.3750000000000000   F   F   F
  0.0833333333333357  0.5833333333333357  0.3750000000000000   F   F   F
  0.5833333333333357  0.0833333333333357  0.3750000000000000   F   F   F
  0.5833333333333357  0.5833333333333357  0.3750000000000000   F   F   F
  0.2500000000000000  0.2500000000000000  0.4583333333333357   F   F   F
  0.2500000000000000  0.7500000000000000  0.4583333333333357   F   F   F
  0.7500000000000000  0.2500000000000000  0.4583333333333357   F   F   F
  0.7500000000000000  0.7500000000000000  0.4583333333333357   F   F   F
  0.1666666666666643  0.4166666666666643  0.2916666666666643   F   F   F
  0.1666666666666643  0.9166666666666643  0.2916666666666643   F   F   F
  0.6666666666666643  0.4166666666666643  0.2916666666666643   F   F   F
  0.6666666666666643  0.9166666666666643  0.2916666666666643   F   F   F
  0.3333333333333357  0.0833333333333357  0.3750000000000000   F   F   F
  0.3333333333333357  0.5833333333333357  0.3750000000000000   F   F   F
  0.8333333333333357  0.0833333333333357  0.3750000000000000   F   F   F
  0.8333333333333357  0.5833333333333357  0.3750000000000000   F   F   F
  0.0000000000000000  0.2500000000000000  0.4583333333333357   F   F   F
  0.0000000000000000  0.7500000000000000  0.4583333333333357   F   F   F
  0.5000000000000000  0.2500000000000000  0.4583333333333357   F   F   F
  0.5000000000000000  0.7500000000000000  0.4583333333333357   F   F   F
  0.4166666666666643  0.1666666666666643  0.2916666666666643   F   F   F
  0.4166666666666643  0.6666666666666643  0.2916666666666643   F   F   F
  0.9166666666666643  0.1666666666666643  0.2916666666666643   F   F   F
  0.9166666666666643  0.6666666666666643  0.2916666666666643   F   F   F
  0.0833333333333357  0.3333333333333357  0.3750000000000000   F   F   F
  0.0833333333333357  0.8333333333333357  0.3750000000000000   F   F   F
  0.5833333333333357  0.3333333333333357  0.3750000000000000   F   F   F
  0.5833333333333357  0.8333333333333357  0.3750000000000000   F   F   F
  0.2500000000000000  0.5000000000000000  0.4583333333333357   F   F   F
  0.2500000000000000  0.0000000000000000  0.4583333333333357   F   F   F
  0.7500000000000000  0.5000000000000000  0.4583333333333357   F   F   F
  0.7500000000000000  0.0000000000000000  0.4583333333333357   F   F   F
 -0.0012115225178230 -0.0017309531707089  0.7054981768687745   T   T   T
 -0.0014208153595196  0.5048901566216255  0.7055545346892532   T   T   T
  0.4992343325720484 -0.0010671641826118  0.7048043664780808   T   T   T
  0.5019963632397503  0.4991848352634287  0.7056285271118299   T   T   T
  0.1666666666666643  0.1666666666666643  0.5416666666666643   F   F   F
  0.1666666666666643  0.6666666666666643  0.5416666666666643   F   F   F
  0.6666666666666643  0.1666666666666643  0.5416666666666643   F   F   F
  0.6666666666666643  0.6666666666666643  0.5416666666666643   F   F   F
  0.3311808981440811  0.3324429147160145  0.6261285101636133   T   T   T
  0.3333403117878124  0.8312628361969475  0.6228009684688227   T   T   T
  0.8350282140378118  0.3325684038792711  0.6239530432652483   T   T   T
  0.8333279308390990  0.8335177348280363  0.6233810580496268   T   T   T
  0.4166666666666643  0.4166666666666643  0.5416666666666643   F   F   F
  0.4166666666666643  0.9166666666666643  0.5416666666666643   F   F   F
  0.9166666666666643  0.4166666666666643  0.5416666666666643   F   F   F
  0.9166666666666643  0.9166666666666643  0.5416666666666643   F   F   F
  0.0828461079242921  0.0842889644378554  0.6238326649510790   T   T   T
  0.0861100887196271  0.5828398183537296  0.6241547606336683   T   T   T
  0.5834942095413218  0.0848749619900363  0.6239058171260892   T   T   T
  0.5823954771202959  0.5817202723973471  0.6228727899233751   T   T   T
  0.2464696484042351  0.2461418024257698  0.7104210577141048   T   T   T
  0.2500286929396029  0.7511258676298727  0.7051909180873387   T   T   T
  0.7458520533417051  0.2495688662543871  0.7047973364703247   T   T   T
  0.7492352864414830  0.7508387009215564  0.7060444509669672   T   T   T
  0.1666666666666643  0.4166666666666643  0.5416666666666643   F   F   F
  0.1666666666666643  0.9166666666666643  0.5416666666666643   F   F   F
  0.6666666666666643  0.4166666666666643  0.5416666666666643   F   F   F
  0.6666666666666643  0.9166666666666643  0.5416666666666643   F   F   F
  0.3323357322541070  0.0843113816104737  0.6249164266610641   T   T   T
  0.3324219134762744  0.5810165383246755  0.6238654238980983   T   T   T
  0.8328320174796674  0.0830730175778645  0.6232448087668702   T   T   T
  0.8333497444666893  0.5830042639950881  0.6233673582350727   T   T   T
 -0.0075512967546159  0.2422274772359405  0.7057324375504757   T   T   T
 -0.0041048894685819  0.7552331539737642  0.7053766368764396   T   T   T
  0.4961597282156036  0.2486624515072628  0.7081377773114256   T   T   T
  0.5011629598162142  0.7478093904294374  0.7059721786511717   T   T   T
  0.4166666666666643  0.1666666666666643  0.5416666666666643   F   F   F
  0.4166666666666643  0.6666666666666643  0.5416666666666643   F   F   F
  0.9166666666666643  0.1666666666666643  0.5416666666666643   F   F   F
  0.9166666666666643  0.6666666666666643  0.5416666666666643   F   F   F
  0.0829915704954206  0.3336501671438973  0.6250109565206560   T   T   T
  0.0832906422543784  0.8345667847383290  0.6231457639348867   T   T   T
  0.5817437075719813  0.3341032563300377  0.6234582611612502   T   T   T
  0.5828754341428865  0.8320983499390113  0.6230469236407297   T   T   T
  0.2459619181500652  0.5126534716372446  0.7090304159405002   T   T   T
  0.2545978935300502 -0.0075506471730811  0.7047263644804166   T   T   T
  0.7489117832410844  0.5027246720172051  0.7048849209153629   T   T   T
  0.7476700455498864  0.0018433792834460  0.7065530382262818   T   T   T
  0.0833846900574013  0.2118285701830881  0.8450395003217009   T   T   T
  0.2855633384956240  0.4027015370503515  0.7848702022216241   T   T   T
  0.2635929294125779  0.4551981913945031  0.8546531498945692   T   T   T
  0.0594093896685815  0.2936171965284029  0.7803033166584336   T   T   T
 
  0.00000000E+00  0.00000000E+00  0.00000000E+00
  0.00000000E+00  0.00000000E+00  0.00000000E+00
  0.00000000E+00  0.00000000E+00  0.00000000E+00
  0.00000000E+00  0.00000000E+00  0.00000000E+00
  0.00000000E+00  0.00000000E+00  0.00000000E+00
  0.00000000E+00  0.00000000E+00  0.00000000E+00
  0.00000000E+00  0.00000000E+00  0.00000000E+00
  0.00000000E+00  0.00000000E+00  0.00000000E+00
  0.00000000E+00  0.00000000E+00  0.00000000E+00
  0.00000000E+00  0.00000000E+00  0.00000000E+00
  0.00000000E+00  0.00000000E+00  0.00000000E+00
  0.00000000E+00  0.00000000E+00  0.00000000E+00
  0.00000000E+00  0.00000000E+00  0.00000000E+00
  0.00000000E+00  0.00000000E+00  0.00000000E+00
  0.00000000E+00  0.00000000E+00  0.00000000E+00
  0.00000000E+00  0.00000000E+00  0.00000000E+00
  0.00000000E+00  0.00000000E+00  0.00000000E+00
  0.00000000E+00  0.00000000E+00  0.00000000E+00
  0.00000000E+00  0.00000000E+00  0.00000000E+00
  0.00000000E+00  0.00000000E+00  0.00000000E+00
  0.00000000E+00  0.00000000E+00  0.00000000E+00
  0.00000000E+00  0.00000000E+00  0.00000000E+00
  0.00000000E+00  0.00000000E+00  0.00000000E+00
  0.00000000E+00  0.00000000E+00  0.00000000E+00
  0.00000000E+00  0.00000000E+00  0.00000000E+00
  0.00000000E+00  0.00000000E+00  0.00000000E+00
  0.00000000E+00  0.00000000E+00  0.00000000E+00
  0.00000000E+00  0.00000000E+00  0.00000000E+00
  0.00000000E+00  0.00000000E+00  0.00000000E+00
  0.00000000E+00  0.00000000E+00  0.00000000E+00
  0.00000000E+00  0.00000000E+00  0.00000000E+00
  0.00000000E+00  0.00000000E+00  0.00000000E+00
  0.00000000E+00  0.00000000E+00  0.00000000E+00
  0.00000000E+00  0.00000000E+00  0.00000000E+00
  0.00000000E+00  0.00000000E+00  0.00000000E+00
  0.00000000E+00  0.00000000E+00  0.00000000E+00
  0.00000000E+00  0.00000000E+00  0.00000000E+00
  0.00000000E+00  0.00000000E+00  0.00000000E+00
  0.00000000E+00  0.00000000E+00  0.00000000E+00
  0.00000000E+00  0.00000000E+00  0.00000000E+00
  0.00000000E+00  0.00000000E+00  0.00000000E+00
  0.00000000E+00  0.00000000E+00  0.00000000E+00
  0.00000000E+00  0.00000000E+00  0.00000000E+00
  0.00000000E+00  0.00000000E+00  0.00000000E+00
  0.00000000E+00  0.00000000E+00  0.00000000E+00
  0.00000000E+00  0.00000000E+00  0.00000000E+00
  0.00000000E+00  0.00000000E+00  0.00000000E+00
  0.00000000E+00  0.00000000E+00  0.00000000E+00
  0.00000000E+00  0.00000000E+00  0.00000000E+00
  0.00000000E+00  0.00000000E+00  0.00000000E+00
  0.00000000E+00  0.00000000E+00  0.00000000E+00
  0.00000000E+00  0.00000000E+00  0.00000000E+00
  0.00000000E+00  0.00000000E+00  0.00000000E+00
  0.00000000E+00  0.00000000E+00  0.00000000E+00
  0.00000000E+00  0.00000000E+00  0.00000000E+00
  0.00000000E+00  0.00000000E+00  0.00000000E+00
  0.00000000E+00  0.00000000E+00  0.00000000E+00
  0.00000000E+00  0.00000000E+00  0.00000000E+00
  0.00000000E+00  0.00000000E+00  0.00000000E+00
  0.00000000E+00  0.00000000E+00  0.00000000E+00
  0.00000000E+00  0.00000000E+00  0.00000000E+00
  0.00000000E+00  0.00000000E+00  0.00000000E+00
  0.00000000E+00  0.00000000E+00  0.00000000E+00
  0.00000000E+00  0.00000000E+00  0.00000000E+00
  0.00000000E+00  0.00000000E+00  0.00000000E+00
  0.00000000E+00  0.00000000E+00  0.00000000E+00
  0.00000000E+00  0.00000000E+00  0.00000000E+00
  0.00000000E+00  0.00000000E+00  0.00000000E+00
  0.00000000E+00  0.00000000E+00  0.00000000E+00
  0.00000000E+00  0.00000000E+00  0.00000000E+00
  0.00000000E+00  0.00000000E+00  0.00000000E+00
  0.00000000E+00  0.00000000E+00  0.00000000E+00
  0.00000000E+00  0.00000000E+00  0.00000000E+00
  0.00000000E+00  0.00000000E+00  0.00000000E+00
  0.00000000E+00  0.00000000E+00  0.00000000E+00
  0.00000000E+00  0.00000000E+00  0.00000000E+00
  0.00000000E+00  0.00000000E+00  0.00000000E+00
  0.00000000E+00  0.00000000E+00  0.00000000E+00
  0.00000000E+00  0.00000000E+00  0.00000000E+00
  0.00000000E+00  0.00000000E+00  0.00000000E+00
  0.00000000E+00  0.00000000E+00  0.00000000E+00
  0.00000000E+00  0.00000000E+00  0.00000000E+00
  0.00000000E+00  0.00000000E+00  0.00000000E+00
  0.00000000E+00  0.00000000E+00  0.00000000E+00
  0.00000000E+00  0.00000000E+00  0.00000000E+00
  0.00000000E+00  0.00000000E+00  0.00000000E+00
  0.00000000E+00  0.00000000E+00  0.00000000E+00
  0.00000000E+00  0.00000000E+00  0.00000000E+00
  0.00000000E+00  0.00000000E+00  0.00000000E+00
  0.00000000E+00  0.00000000E+00  0.00000000E+00
  0.00000000E+00  0.00000000E+00  0.00000000E+00
  0.00000000E+00  0.00000000E+00  0.00000000E+00
  0.00000000E+00  0.00000000E+00  0.00000000E+00
  0.00000000E+00  0.00000000E+00  0.00000000E+00
  0.00000000E+00  0.00000000E+00  0.00000000E+00
  0.00000000E+00  0.00000000E+00  0.00000000E+00
  0.00000000E+00  0.00000000E+00  0.00000000E+00
  0.00000000E+00  0.00000000E+00  0.00000000E+00
  0.00000000E+00  0.00000000E+00  0.00000000E+00
  0.00000000E+00  0.00000000E+00  0.00000000E+00
  0.00000000E+00  0.00000000E+00  0.00000000E+00
  0.00000000E+00  0.00000000E+00  0.00000000E+00
