K2 V8 Zn1 O19                           
    1.000000000000000     
    11.9155413769012970    0.0000000000000000    0.2966542260782208
     0.0000000000000000    3.8121669862468011    0.0000000000000000
     0.2468771249900987    0.0000000000000000    8.9256920238522550
   Zn   K    V    O 
     1     2     8    19
Direct
  0.2492638993189364  0.0000000000000000  0.5691121884105367
  0.5520818307455477  0.0000000000000000  0.4605044348109573
  0.0245264266216647  0.5000000000000000  0.4780614879139232
  0.0765360896074934  0.0000000000000000  0.8446303105064406
  0.9253556049921556  0.0000000000000000  0.1578621011627259
  0.5758954072144515  0.5000000000000000  0.8335518884776550
  0.4239858714237862  0.5000000000000000  0.1515013521284539
  0.7653261327493058  0.0000000000000000  0.8983502626055778
  0.2270241857435119  0.0000000000000000  0.1616694695674166
  0.2733063868809401  0.5000000000000000  0.8548343587479234
  0.7227325187153000  0.5000000000000000  0.1700129110499848
  0.6111336850212421  0.0000000000000000  0.8590342897230888
  0.3897164622055279  0.0000000000000000  0.1331305626522207
  0.1051153900605628  0.5000000000000000  0.8753457330241889
  0.8906648085234073  0.5000000000000000  0.1352842137508196
  0.9131960288517627  0.0000000000000000  0.8800849052969074
  0.0670803997722169  0.0000000000000000  0.0992482986207677
  0.4173570877472946  0.5000000000000000  0.9006315233025441
  0.5691868367378469  0.5000000000000000  0.1000153171681926
  0.2395175202255955  0.0000000000000000  0.8853282829209874
  0.7533126738353747  0.0000000000000000  0.1153930084422517
  0.7394140827068525  0.5000000000000000  0.8885700096746708
  0.2552955908278231  0.5000000000000000  0.1104800560246896
  0.0846682557184045  0.0000000000000000  0.6526448937640892
  0.9235029220640083  0.0000000000000000  0.3406340125705482
  0.5663237533028809  0.5000000000000000  0.6506319305462924
  0.4225609098160998  0.5000000000000000  0.3353055849809508
  0.2038185830953590  0.0000000000000000  0.3512590460723256
  0.2815533215338675  0.5000000000000000  0.6413021997931097
  0.7001447625121936  0.5000000000000000  0.3517909218453369
 
  0.00000000E+00  0.00000000E+00  0.00000000E+00
  0.00000000E+00  0.00000000E+00  0.00000000E+00
  0.00000000E+00  0.00000000E+00  0.00000000E+00
  0.00000000E+00  0.00000000E+00  0.00000000E+00
  0.00000000E+00  0.00000000E+00  0.00000000E+00
  0.00000000E+00  0.00000000E+00  0.00000000E+00
  0.00000000E+00  0.00000000E+00  0.00000000E+00
  0.00000000E+00  0.00000000E+00  0.00000000E+00
  0.00000000E+00  0.00000000E+00  0.00000000E+00
  0.00000000E+00  0.00000000E+00  0.00000000E+00
  0.00000000E+00  0.00000000E+00  0.00000000E+00
  0.00000000E+00  0.00000000E+00  0.00000000E+00
  0.00000000E+00  0.00000000E+00  0.00000000E+00
  0.00000000E+00  0.00000000E+00  0.00000000E+00
  0.00000000E+00  0.00000000E+00  0.00000000E+00
  0.00000000E+00  0.00000000E+00  0.00000000E+00
  0.00000000E+00  0.00000000E+00  0.00000000E+00
  0.00000000E+00  0.00000000E+00  0.00000000E+00
  0.00000000E+00  0.00000000E+00  0.00000000E+00
  0.00000000E+00  0.00000000E+00  0.00000000E+00
  0.00000000E+00  0.00000000E+00  0.00000000E+00
  0.00000000E+00  0.00000000E+00  0.00000000E+00
  0.00000000E+00  0.00000000E+00  0.00000000E+00
  0.00000000E+00  0.00000000E+00  0.00000000E+00
  0.00000000E+00  0.00000000E+00  0.00000000E+00
  0.00000000E+00  0.00000000E+00  0.00000000E+00
  0.00000000E+00  0.00000000E+00  0.00000000E+00
  0.00000000E+00  0.00000000E+00  0.00000000E+00
  0.00000000E+00  0.00000000E+00  0.00000000E+00
  0.00000000E+00  0.00000000E+00  0.00000000E+00
