Na2 Ni48 S4 O48                         
   1.00000000000000     
     8.5253909119631874    0.0000000000000000    0.0000000000000005
    -0.0000000000000005    8.5253909119631874    0.0000000000000005
     0.0000000000000000    0.0000000000000000   25.5761727358895641
   Na   Ni   S    O 
     2    48     4    48
Selective dynamics
Direct
  0.2906335241754540  0.9593546993120260  0.8833609836512043   T   T   T
  0.9607186307657098  0.2768325555012905  0.8869300669542992   T   T   T
  0.0000000000000000  0.0000000000000000  0.3750000000000000   F   F   F
  0.0000000000000000  0.5000000000000000  0.3750000000000000   F   F   F
  0.5000000000000000  0.0000000000000000  0.3750000000000000   F   F   F
  0.5000000000000000  0.5000000000000000  0.3750000000000000   F   F   F
  0.2500000000000000  0.2500000000000000  0.3750000000000000   F   F   F
  0.2500000000000000  0.7500000000000000  0.3750000000000000   F   F   F
  0.7500000000000000  0.2500000000000000  0.3750000000000000   F   F   F
  0.7500000000000000  0.7500000000000000  0.3750000000000000   F   F   F
  0.0000000000000000  0.2500000000000000  0.2916666666666643   F   F   F
  0.0000000000000000  0.7500000000000000  0.2916666666666643   F   F   F
  0.5000000000000000  0.2500000000000000  0.2916666666666643   F   F   F
  0.5000000000000000  0.7500000000000000  0.2916666666666643   F   F   F
  0.2500000000000000  0.0000000000000000  0.2916666666666643   F   F   F
  0.2500000000000000  0.5000000000000000  0.2916666666666643   F   F   F
  0.7500000000000000  0.0000000000000000  0.2916666666666643   F   F   F
  0.7500000000000000  0.5000000000000000  0.2916666666666643   F   F   F
  0.0000000000000000  0.0000000000000000  0.5416666666666643   F   F   F
  0.0000000000000000  0.5000000000000000  0.5416666666666643   F   F   F
  0.5000000000000000  0.0000000000000000  0.5416666666666643   F   F   F
  0.5000000000000000  0.5000000000000000  0.5416666666666643   F   F   F
  0.2500000000000000  0.2500000000000000  0.5416666666666643   F   F   F
  0.2500000000000000  0.7500000000000000  0.5416666666666643   F   F   F
  0.7500000000000000  0.2500000000000000  0.5416666666666643   F   F   F
  0.7500000000000000  0.7500000000000000  0.5416666666666643   F   F   F
  0.0000000000000000  0.2500000000000000  0.4583333333333357   F   F   F
  0.0000000000000000  0.7500000000000000  0.4583333333333357   F   F   F
  0.5000000000000000  0.2500000000000000  0.4583333333333357   F   F   F
  0.5000000000000000  0.7500000000000000  0.4583333333333357   F   F   F
  0.2500000000000000  0.0000000000000000  0.4583333333333357   F   F   F
  0.2500000000000000  0.5000000000000000  0.4583333333333357   F   F   F
  0.7500000000000000  0.0000000000000000  0.4583333333333357   F   F   F
  0.7500000000000000  0.5000000000000000  0.4583333333333357   F   F   F
 -0.0000134412718283  0.0004555365236118  0.7133091944114679   T   T   T
 -0.0012802969584409  0.5028102423501299  0.7077415757942643   T   T   T
  0.4992653272273866  0.0000505809188475  0.7078660157709024   T   T   T
  0.4985673633631308  0.5012858468660270  0.7085476443162668   T   T   T
  0.2493546112534541  0.2518995995770092  0.7130264982917742   T   T   T
  0.2487972975758458  0.7489708072767469  0.7075957735212672   T   T   T
  0.7486693249117996  0.2522803320723936  0.7080018883025930   T   T   T
  0.7488397783336177  0.7515180217320924  0.7085626212387942   T   T   T
  0.0000980532120284  0.2497786493146289  0.6266195775692758   T   T   T
 -0.0007652429185416  0.7510474045172859  0.6266024530495966   T   T   T
  0.4992626561785833  0.2502570430490474  0.6269535372620024   T   T   T
  0.4995883824937811  0.7499847431322171  0.6266413559723880   T   T   T
  0.2490597376716421  0.0007422928801306  0.6264824631553242   T   T   T
  0.2495665772268260  0.4994991890303647  0.6265258744063714   T   T   T
  0.7500338285446611  0.0005945975954607  0.6270972072206107   T   T   T
  0.7492702043863827  0.5006578718937859  0.6267934148055689   T   T   T
  0.9702361071960990  0.9501105071319621  0.8703728972871529   T   T   T
  0.2485535985900180  0.1703021503419044  0.8030816109363145   T   T   T
  0.2797705950585783  0.2883635386646798  0.8737416089564466   T   T   T
  0.0021663531617467  0.0802136064112739  0.8022488937396437   T   T   T
  0.0000000000000000  0.0000000000000000  0.2916666666666643   F   F   F
  0.0000000000000000  0.5000000000000000  0.2916666666666643   F   F   F
  0.5000000000000000  0.0000000000000000  0.2916666666666643   F   F   F
  0.5000000000000000  0.5000000000000000  0.2916666666666643   F   F   F
  0.2500000000000000  0.2500000000000000  0.2916666666666643   F   F   F
  0.2500000000000000  0.7500000000000000  0.2916666666666643   F   F   F
  0.7500000000000000  0.2500000000000000  0.2916666666666643   F   F   F
  0.7500000000000000  0.7500000000000000  0.2916666666666643   F   F   F
  0.0000000000000000  0.2500000000000000  0.3750000000000000   F   F   F
  0.0000000000000000  0.7500000000000000  0.3750000000000000   F   F   F
  0.5000000000000000  0.2500000000000000  0.3750000000000000   F   F   F
  0.5000000000000000  0.7500000000000000  0.3750000000000000   F   F   F
  0.2500000000000000  0.0000000000000000  0.3750000000000000   F   F   F
  0.2500000000000000  0.5000000000000000  0.3750000000000000   F   F   F
  0.7500000000000000  0.0000000000000000  0.3750000000000000   F   F   F
  0.7500000000000000  0.5000000000000000  0.3750000000000000   F   F   F
  0.0000000000000000  0.0000000000000000  0.4583333333333357   F   F   F
  0.0000000000000000  0.5000000000000000  0.4583333333333357   F   F   F
  0.5000000000000000  0.0000000000000000  0.4583333333333357   F   F   F
  0.5000000000000000  0.5000000000000000  0.4583333333333357   F   F   F
  0.2500000000000000  0.2500000000000000  0.4583333333333357   F   F   F
  0.2500000000000000  0.7500000000000000  0.4583333333333357   F   F   F
  0.7500000000000000  0.2500000000000000  0.4583333333333357   F   F   F
  0.7500000000000000  0.7500000000000000  0.4583333333333357   F   F   F
  0.0000000000000000  0.2500000000000000  0.5416666666666643   F   F   F
  0.0000000000000000  0.7500000000000000  0.5416666666666643   F   F   F
  0.5000000000000000  0.2500000000000000  0.5416666666666643   F   F   F
  0.5000000000000000  0.7500000000000000  0.5416666666666643   F   F   F
  0.2500000000000000  0.0000000000000000  0.5416666666666643   F   F   F
  0.2500000000000000  0.5000000000000000  0.5416666666666643   F   F   F
  0.7500000000000000  0.0000000000000000  0.5416666666666643   F   F   F
  0.7500000000000000  0.5000000000000000  0.5416666666666643   F   F   F
 -0.0010349652779566 -0.0008645425997205  0.6252463535418384   T   T   T
 -0.0006189837062828  0.5019710065097500  0.6257744797933967   T   T   T
  0.5000163267812217 -0.0018562272324995  0.6260970036286558   T   T   T
  0.5003466976665546  0.5003417803188456  0.6265647924915093   T   T   T
  0.2504778283550205  0.2513286941564510  0.6252796905381938   T   T   T
  0.2501918181244036  0.7488813791412595  0.6257410582275545   T   T   T
  0.7494053006001984  0.2515115487172592  0.6259933876337662   T   T   T
  0.7485636711853318  0.7491044742207675  0.6264834573560991   T   T   T
 -0.0011860133765733  0.2546338136387107  0.7060806946078938   T   T   T
 -0.0001133770147722  0.7495778068224429  0.7082403634205645   T   T   T
  0.5014867147163729  0.2493708216197558  0.7078546381104898   T   T   T
  0.4982794395828107  0.7512990417162848  0.7099307321712738   T   T   T
  0.2503598886264117 -0.0029931737075438  0.7060359897405593   T   T   T
  0.2488654629254681  0.5016804010142315  0.7083626856569202   T   T   T
  0.7475942569995169  0.0015433604233039  0.7078629484875947   T   T   T
  0.7500632715950676  0.4995480243839123  0.7097288994223573   T   T   T
 
  0.00000000E+00  0.00000000E+00  0.00000000E+00
  0.00000000E+00  0.00000000E+00  0.00000000E+00
  0.00000000E+00  0.00000000E+00  0.00000000E+00
  0.00000000E+00  0.00000000E+00  0.00000000E+00
  0.00000000E+00  0.00000000E+00  0.00000000E+00
  0.00000000E+00  0.00000000E+00  0.00000000E+00
  0.00000000E+00  0.00000000E+00  0.00000000E+00
  0.00000000E+00  0.00000000E+00  0.00000000E+00
  0.00000000E+00  0.00000000E+00  0.00000000E+00
  0.00000000E+00  0.00000000E+00  0.00000000E+00
  0.00000000E+00  0.00000000E+00  0.00000000E+00
  0.00000000E+00  0.00000000E+00  0.00000000E+00
  0.00000000E+00  0.00000000E+00  0.00000000E+00
  0.00000000E+00  0.00000000E+00  0.00000000E+00
  0.00000000E+00  0.00000000E+00  0.00000000E+00
  0.00000000E+00  0.00000000E+00  0.00000000E+00
  0.00000000E+00  0.00000000E+00  0.00000000E+00
  0.00000000E+00  0.00000000E+00  0.00000000E+00
  0.00000000E+00  0.00000000E+00  0.00000000E+00
  0.00000000E+00  0.00000000E+00  0.00000000E+00
  0.00000000E+00  0.00000000E+00  0.00000000E+00
  0.00000000E+00  0.00000000E+00  0.00000000E+00
  0.00000000E+00  0.00000000E+00  0.00000000E+00
  0.00000000E+00  0.00000000E+00  0.00000000E+00
  0.00000000E+00  0.00000000E+00  0.00000000E+00
  0.00000000E+00  0.00000000E+00  0.00000000E+00
  0.00000000E+00  0.00000000E+00  0.00000000E+00
  0.00000000E+00  0.00000000E+00  0.00000000E+00
  0.00000000E+00  0.00000000E+00  0.00000000E+00
  0.00000000E+00  0.00000000E+00  0.00000000E+00
  0.00000000E+00  0.00000000E+00  0.00000000E+00
  0.00000000E+00  0.00000000E+00  0.00000000E+00
  0.00000000E+00  0.00000000E+00  0.00000000E+00
  0.00000000E+00  0.00000000E+00  0.00000000E+00
  0.00000000E+00  0.00000000E+00  0.00000000E+00
  0.00000000E+00  0.00000000E+00  0.00000000E+00
  0.00000000E+00  0.00000000E+00  0.00000000E+00
  0.00000000E+00  0.00000000E+00  0.00000000E+00
  0.00000000E+00  0.00000000E+00  0.00000000E+00
  0.00000000E+00  0.00000000E+00  0.00000000E+00
  0.00000000E+00  0.00000000E+00  0.00000000E+00
  0.00000000E+00  0.00000000E+00  0.00000000E+00
  0.00000000E+00  0.00000000E+00  0.00000000E+00
  0.00000000E+00  0.00000000E+00  0.00000000E+00
  0.00000000E+00  0.00000000E+00  0.00000000E+00
  0.00000000E+00  0.00000000E+00  0.00000000E+00
  0.00000000E+00  0.00000000E+00  0.00000000E+00
  0.00000000E+00  0.00000000E+00  0.00000000E+00
  0.00000000E+00  0.00000000E+00  0.00000000E+00
  0.00000000E+00  0.00000000E+00  0.00000000E+00
  0.00000000E+00  0.00000000E+00  0.00000000E+00
  0.00000000E+00  0.00000000E+00  0.00000000E+00
  0.00000000E+00  0.00000000E+00  0.00000000E+00
  0.00000000E+00  0.00000000E+00  0.00000000E+00
  0.00000000E+00  0.00000000E+00  0.00000000E+00
  0.00000000E+00  0.00000000E+00  0.00000000E+00
  0.00000000E+00  0.00000000E+00  0.00000000E+00
  0.00000000E+00  0.00000000E+00  0.00000000E+00
  0.00000000E+00  0.00000000E+00  0.00000000E+00
  0.00000000E+00  0.00000000E+00  0.00000000E+00
  0.00000000E+00  0.00000000E+00  0.00000000E+00
  0.00000000E+00  0.00000000E+00  0.00000000E+00
  0.00000000E+00  0.00000000E+00  0.00000000E+00
  0.00000000E+00  0.00000000E+00  0.00000000E+00
  0.00000000E+00  0.00000000E+00  0.00000000E+00
  0.00000000E+00  0.00000000E+00  0.00000000E+00
  0.00000000E+00  0.00000000E+00  0.00000000E+00
  0.00000000E+00  0.00000000E+00  0.00000000E+00
  0.00000000E+00  0.00000000E+00  0.00000000E+00
  0.00000000E+00  0.00000000E+00  0.00000000E+00
  0.00000000E+00  0.00000000E+00  0.00000000E+00
  0.00000000E+00  0.00000000E+00  0.00000000E+00
  0.00000000E+00  0.00000000E+00  0.00000000E+00
  0.00000000E+00  0.00000000E+00  0.00000000E+00
  0.00000000E+00  0.00000000E+00  0.00000000E+00
  0.00000000E+00  0.00000000E+00  0.00000000E+00
  0.00000000E+00  0.00000000E+00  0.00000000E+00
  0.00000000E+00  0.00000000E+00  0.00000000E+00
  0.00000000E+00  0.00000000E+00  0.00000000E+00
  0.00000000E+00  0.00000000E+00  0.00000000E+00
  0.00000000E+00  0.00000000E+00  0.00000000E+00
  0.00000000E+00  0.00000000E+00  0.00000000E+00
  0.00000000E+00  0.00000000E+00  0.00000000E+00
  0.00000000E+00  0.00000000E+00  0.00000000E+00
  0.00000000E+00  0.00000000E+00  0.00000000E+00
  0.00000000E+00  0.00000000E+00  0.00000000E+00
  0.00000000E+00  0.00000000E+00  0.00000000E+00
  0.00000000E+00  0.00000000E+00  0.00000000E+00
  0.00000000E+00  0.00000000E+00  0.00000000E+00
  0.00000000E+00  0.00000000E+00  0.00000000E+00
  0.00000000E+00  0.00000000E+00  0.00000000E+00
  0.00000000E+00  0.00000000E+00  0.00000000E+00
  0.00000000E+00  0.00000000E+00  0.00000000E+00
  0.00000000E+00  0.00000000E+00  0.00000000E+00
  0.00000000E+00  0.00000000E+00  0.00000000E+00
  0.00000000E+00  0.00000000E+00  0.00000000E+00
  0.00000000E+00  0.00000000E+00  0.00000000E+00
  0.00000000E+00  0.00000000E+00  0.00000000E+00
  0.00000000E+00  0.00000000E+00  0.00000000E+00
  0.00000000E+00  0.00000000E+00  0.00000000E+00
  0.00000000E+00  0.00000000E+00  0.00000000E+00
  0.00000000E+00  0.00000000E+00  0.00000000E+00
