K4 V16 Zn1 O39                          
   1.00000000000000     
     3.7554307507347322    0.0000000000000000    0.0000000000000000
     0.0000000000000000   12.2560944878426952   -0.3795899542952508
     0.0000000000000000   -0.6023481551774728   16.9549012876257876
   Zn   K    V    O 
     1     4    16    39
Direct
 -0.0000000000000000  0.4110358589908431  0.2788208158070036
  0.0000000000000000  0.6044903885150323  0.1909843134864684
 -0.0000000000000000  0.3325385344042997  0.7553195867384958
  0.5000000000000000  0.0531972276573705  0.2615979910726923
  0.5000000000000000  0.9016010505003937  0.7624631550630938
 -0.0000000000000000  0.9278687152750928  0.4026540960686669
 -0.0000000000000000  0.0812204494700848  0.5569681771182191
  0.0000000000000000  0.9416066184645253  0.1094160047626612
  0.0000000000000000  0.0557115553015915  0.9429764760240500
  0.5000000000000000  0.4220970774647494  0.4153345754143134
  0.5000000000000000  0.5924225571782546  0.5371443662279035
  0.5000000000000000  0.4352714844188420  0.0839128036153118
  0.5000000000000000  0.5635727903176938  0.9433845357970515
 -0.0000000000000000  0.2271897145405044  0.3942098567828778
 -0.0000000000000000  0.7868030407057028  0.5560253447024255
 -0.0000000000000000  0.2418748738288667  0.0986564144457019
 -0.0000000000000000  0.7653404759006510  0.9426333777420250
  0.5000000000000000  0.7344392541430546  0.3879199766114543
  0.5000000000000000  0.2722958661993059  0.5520695148719750
  0.5000000000000000  0.7489526836644668  0.0931259654924937
  0.5000000000000000  0.2513062669844219  0.9427571890156169
  0.0000000000000000  0.9402110836268918  0.5159918229817341
  0.0000000000000000  0.0812502603780029  0.1006866839143680
  0.0000000000000000  0.9254380962291106  0.9803367675442236
  0.5000000000000000  0.5830162168505765  0.4313587378290090
  0.5000000000000000  0.4358032997560650  0.5281066310136955
  0.5000000000000000  0.5821115642518138  0.0645569385405533
  0.5000000000000000  0.4199985469580716  0.9632054259599063
  0.0000000000000000  0.2341202151558560  0.5236470171260703
  0.0000000000000000  0.7680317102318539  0.4118097360900586
 -0.0000000000000000  0.2201290034195176  0.9730329936334681
  0.0000000000000000  0.7715145703002466  0.0803892285501431
  0.5000000000000000  0.7548185399952678  0.5239728919773112
  0.5000000000000000  0.2614593222499714  0.4191475774167303
  0.5000000000000000  0.7382218171445187  0.9743225359418248
  0.5000000000000000  0.2718385945833892  0.0761506346213092
  0.0000000000000000  0.1985435729957076  0.2800891355493553
 -0.0000000000000000  0.8284659372907907  0.6490922575493197
  0.0000000000000000  0.2740807117102472  0.2156249152833930
  0.0000000000000000  0.7867097497013789  0.8486308601247937
  0.5000000000000000  0.6909282113938086  0.2753944804731611
  0.5000000000000000  0.2970605794842179  0.6476765078874965
  0.5000000000000000  0.7473978765987747  0.2034520574804926
  0.5000000000000000  0.2560550123138123  0.8467713202401826
  0.0000000000000000  0.3932989055400524  0.4022367549949762
 -0.0000000000000000  0.6211291747458149  0.5616881941048026
 -0.0000000000000000  0.4086897342597459  0.0799599943244712
  0.0000000000000000  0.6047920028882837  0.9482589641049620
  0.5000000000000000  0.8975552142390545  0.3767678348302655
  0.5000000000000000  0.1085022148720707  0.5399751464375114
  0.5000000000000000  0.9059017747759808  0.0950689149401991
  0.5000000000000000  0.0911776445810772  0.9574023655261237
 -0.0000000000000000  0.0668858215116448  0.3920032069892136
  0.0000000000000000  0.0752710885821673  0.6507867208083550
  0.0000000000000000  0.9297708192734145  0.2056866281733886
 -0.0000000000000000  0.0315635677484240  0.8481060092293952
  0.5000000000000000  0.4426809042976166  0.3114022572072923
  0.5000000000000000  0.5061776341380743  0.7681967478953913
  0.5000000000000000  0.4616553662819201  0.1800659088151366
  0.5000000000000000  0.5424484414332814  0.8413313236960654
 
  0.00000000E+00  0.00000000E+00  0.00000000E+00
  0.00000000E+00  0.00000000E+00  0.00000000E+00
  0.00000000E+00  0.00000000E+00  0.00000000E+00
  0.00000000E+00  0.00000000E+00  0.00000000E+00
  0.00000000E+00  0.00000000E+00  0.00000000E+00
  0.00000000E+00  0.00000000E+00  0.00000000E+00
  0.00000000E+00  0.00000000E+00  0.00000000E+00
  0.00000000E+00  0.00000000E+00  0.00000000E+00
  0.00000000E+00  0.00000000E+00  0.00000000E+00
  0.00000000E+00  0.00000000E+00  0.00000000E+00
  0.00000000E+00  0.00000000E+00  0.00000000E+00
  0.00000000E+00  0.00000000E+00  0.00000000E+00
  0.00000000E+00  0.00000000E+00  0.00000000E+00
  0.00000000E+00  0.00000000E+00  0.00000000E+00
  0.00000000E+00  0.00000000E+00  0.00000000E+00
  0.00000000E+00  0.00000000E+00  0.00000000E+00
  0.00000000E+00  0.00000000E+00  0.00000000E+00
  0.00000000E+00  0.00000000E+00  0.00000000E+00
  0.00000000E+00  0.00000000E+00  0.00000000E+00
  0.00000000E+00  0.00000000E+00  0.00000000E+00
  0.00000000E+00  0.00000000E+00  0.00000000E+00
  0.00000000E+00  0.00000000E+00  0.00000000E+00
  0.00000000E+00  0.00000000E+00  0.00000000E+00
  0.00000000E+00  0.00000000E+00  0.00000000E+00
  0.00000000E+00  0.00000000E+00  0.00000000E+00
  0.00000000E+00  0.00000000E+00  0.00000000E+00
  0.00000000E+00  0.00000000E+00  0.00000000E+00
  0.00000000E+00  0.00000000E+00  0.00000000E+00
  0.00000000E+00  0.00000000E+00  0.00000000E+00
  0.00000000E+00  0.00000000E+00  0.00000000E+00
  0.00000000E+00  0.00000000E+00  0.00000000E+00
  0.00000000E+00  0.00000000E+00  0.00000000E+00
  0.00000000E+00  0.00000000E+00  0.00000000E+00
  0.00000000E+00  0.00000000E+00  0.00000000E+00
  0.00000000E+00  0.00000000E+00  0.00000000E+00
  0.00000000E+00  0.00000000E+00  0.00000000E+00
  0.00000000E+00  0.00000000E+00  0.00000000E+00
  0.00000000E+00  0.00000000E+00  0.00000000E+00
  0.00000000E+00  0.00000000E+00  0.00000000E+00
  0.00000000E+00  0.00000000E+00  0.00000000E+00
  0.00000000E+00  0.00000000E+00  0.00000000E+00
  0.00000000E+00  0.00000000E+00  0.00000000E+00
  0.00000000E+00  0.00000000E+00  0.00000000E+00
  0.00000000E+00  0.00000000E+00  0.00000000E+00
  0.00000000E+00  0.00000000E+00  0.00000000E+00
  0.00000000E+00  0.00000000E+00  0.00000000E+00
  0.00000000E+00  0.00000000E+00  0.00000000E+00
  0.00000000E+00  0.00000000E+00  0.00000000E+00
  0.00000000E+00  0.00000000E+00  0.00000000E+00
  0.00000000E+00  0.00000000E+00  0.00000000E+00
  0.00000000E+00  0.00000000E+00  0.00000000E+00
  0.00000000E+00  0.00000000E+00  0.00000000E+00
  0.00000000E+00  0.00000000E+00  0.00000000E+00
  0.00000000E+00  0.00000000E+00  0.00000000E+00
  0.00000000E+00  0.00000000E+00  0.00000000E+00
  0.00000000E+00  0.00000000E+00  0.00000000E+00
  0.00000000E+00  0.00000000E+00  0.00000000E+00
  0.00000000E+00  0.00000000E+00  0.00000000E+00
  0.00000000E+00  0.00000000E+00  0.00000000E+00
  0.00000000E+00  0.00000000E+00  0.00000000E+00
