Na2 Zn96 S8                             
    1.000000000000000     
    10.5852331862242313    0.0000000000000000    0.0000000000000006
     2.6463082965560556   10.8709891499343758    4.5835404221261369
     0.0000000000000000    0.0000000000000000   27.5012425327568408
   Na   Zn   S 
     2    96     8
Selective dynamics
Direct
  0.0317987518268858  0.3439454650298894  0.9233734235875874   T   T   T
  0.3252359112787636  0.3879796430011935  0.8957958928509371   T   T   T
  0.1562500000000000  0.3750000000000000  0.2986111111111143   F   F   F
  0.1562500000000000  0.8750000000000000  0.2986111111111143   F   F   F
  0.4062500000000000  0.3750000000000000  0.2986111111111143   F   F   F
  0.4062500000000000  0.8750000000000000  0.2986111111111143   F   F   F
  0.6562500000000000  0.3750000000000000  0.2986111111111143   F   F   F
  0.6562500000000000  0.8750000000000000  0.2986111111111143   F   F   F
  0.9062500000000000  0.3750000000000000  0.2986111111111143   F   F   F
  0.9062500000000000  0.8750000000000000  0.2986111111111143   F   F   F
  0.0312500000000000  0.3750000000000000  0.3819444444444429   F   F   F
  0.0312500000000000  0.8750000000000000  0.3819444444444429   F   F   F
  0.2812500000000000  0.3750000000000000  0.3819444444444429   F   F   F
  0.2812500000000000  0.8750000000000000  0.3819444444444429   F   F   F
  0.5312500000000000  0.3750000000000000  0.3819444444444429   F   F   F
  0.5312500000000000  0.8750000000000000  0.3819444444444429   F   F   F
  0.7812500000000000  0.3750000000000000  0.3819444444444429   F   F   F
  0.7812500000000000  0.8750000000000000  0.3819444444444429   F   F   F
  0.0937500000000000  0.1250000000000000  0.3680555555555571   F   F   F
  0.0937500000000000  0.6250000000000000  0.3680555555555571   F   F   F
  0.3437500000000000  0.1250000000000000  0.3680555555555571   F   F   F
  0.3437500000000000  0.6250000000000000  0.3680555555555571   F   F   F
  0.5937500000000000  0.1250000000000000  0.3680555555555571   F   F   F
  0.5937500000000000  0.6250000000000000  0.3680555555555571   F   F   F
  0.8437500000000000  0.1250000000000000  0.3680555555555571   F   F   F
  0.8437500000000000  0.6250000000000000  0.3680555555555571   F   F   F
  0.2187500000000000  0.1250000000000000  0.2847222222222214   F   F   F
  0.2187500000000000  0.6250000000000000  0.2847222222222214   F   F   F
  0.4687500000000000  0.1250000000000000  0.2847222222222214   F   F   F
  0.4687500000000000  0.6250000000000000  0.2847222222222214   F   F   F
  0.7187500000000000  0.1250000000000000  0.2847222222222214   F   F   F
  0.7187500000000000  0.6250000000000000  0.2847222222222214   F   F   F
  0.9687500000000000  0.1250000000000000  0.2847222222222214   F   F   F
  0.9687500000000000  0.6250000000000000  0.2847222222222214   F   F   F
  0.1562500000000000  0.3750000000000000  0.4652777777777786   F   F   F
  0.1562500000000000  0.8750000000000000  0.4652777777777786   F   F   F
  0.4062500000000000  0.3750000000000000  0.4652777777777786   F   F   F
  0.4062500000000000  0.8750000000000000  0.4652777777777786   F   F   F
  0.6562500000000000  0.3750000000000000  0.4652777777777786   F   F   F
  0.6562500000000000  0.8750000000000000  0.4652777777777786   F   F   F
  0.9062500000000000  0.3750000000000000  0.4652777777777786   F   F   F
  0.9062500000000000  0.8750000000000000  0.4652777777777786   F   F   F
  0.0312500000000000  0.3750000000000000  0.5486111111111143   F   F   F
  0.0312500000000000  0.8750000000000000  0.5486111111111143   F   F   F
  0.2812500000000000  0.3750000000000000  0.5486111111111143   F   F   F
  0.2812500000000000  0.8750000000000000  0.5486111111111143   F   F   F
  0.5312500000000000  0.3750000000000000  0.5486111111111143   F   F   F
  0.5312500000000000  0.8750000000000000  0.5486111111111143   F   F   F
  0.7812500000000000  0.3750000000000000  0.5486111111111143   F   F   F
  0.7812500000000000  0.8750000000000000  0.5486111111111143   F   F   F
  0.0937500000000000  0.1250000000000000  0.5347222222222214   F   F   F
  0.0937500000000000  0.6250000000000000  0.5347222222222214   F   F   F
  0.3437500000000000  0.1250000000000000  0.5347222222222214   F   F   F
  0.3437500000000000  0.6250000000000000  0.5347222222222214   F   F   F
  0.5937500000000000  0.1250000000000000  0.5347222222222214   F   F   F
  0.5937500000000000  0.6250000000000000  0.5347222222222214   F   F   F
  0.8437500000000000  0.1250000000000000  0.5347222222222214   F   F   F
  0.8437500000000000  0.6250000000000000  0.5347222222222214   F   F   F
  0.2187500000000000  0.1250000000000000  0.4513888888888857   F   F   F
  0.2187500000000000  0.6250000000000000  0.4513888888888857   F   F   F
  0.4687500000000000  0.1250000000000000  0.4513888888888857   F   F   F
  0.4687500000000000  0.6250000000000000  0.4513888888888857   F   F   F
  0.7187500000000000  0.1250000000000000  0.4513888888888857   F   F   F
  0.7187500000000000  0.6250000000000000  0.4513888888888857   F   F   F
  0.9687500000000000  0.1250000000000000  0.4513888888888857   F   F   F
  0.9687500000000000  0.6250000000000000  0.4513888888888857   F   F   F
  0.1673606817096165  0.3530535436011900  0.6396621158326550   T   T   T
  0.1547956704870533  0.8686737986332170  0.6376042412035341   T   T   T
  0.4120888283613400  0.3920419003168616  0.6314601153810301   T   T   T
  0.4059744870883094  0.8744120687126168  0.6340831993968926   T   T   T
  0.6708995436967385  0.3492328602426581  0.6429855106708394   T   T   T
  0.6612341182458342  0.8577664582552106  0.6397561600582536   T   T   T
  0.9232312052611362  0.3332846910144551  0.6472937345919373   T   T   T
  0.9099318159586156  0.8655305149734858  0.6389110375954423   T   T   T
  0.0222697445793426  0.4258679814651067  0.7087630955754897   T   T   T
  0.0203203351573601  0.8955755547676476  0.7247750434151644   T   T   T
  0.3348518808247494  0.3074322960360261  0.7278306915160411   T   T   T
  0.2746712438428532  0.9061556957427317  0.7142245320450265   T   T   T
  0.5271057318048169  0.4212910931191502  0.7154862312545316   T   T   T
  0.5206595311395232  0.9098461039668587  0.7139824307463203   T   T   T
  0.7754897589468890  0.4235521741565436  0.7126549590142163   T   T   T
  0.7614183302010719  0.9208879400398734  0.7130706090528909   T   T   T
  0.0949594743563320  0.1056637952130380  0.7067617045776653   T   T   T
  0.1044596092399814  0.6315262593229365  0.7151836893722326   T   T   T
  0.3441301851850624  0.1117174573193839  0.7084023638940502   T   T   T
  0.3448255777550098  0.6507130439955058  0.7012310685640517   T   T   T
  0.5851773043924025  0.1352912263594587  0.7061620206024238   T   T   T
  0.5940852950636106  0.6352087554822723  0.7055857070608599   T   T   T
  0.8433181236841883  0.1197055712262035  0.7059807209280632   T   T   T
  0.8415990033555658  0.6398514229441388  0.7013978331738293   T   T   T
  0.2148133502528410  0.1397682967302136  0.6149557649172017   T   T   T
  0.2249461626914823  0.5808889773022216  0.6334686846155791   T   T   T
  0.4655914522432275  0.1331548248920908  0.6167503708127952   T   T   T
  0.4635198123622676  0.6356856640704883  0.6156908979045935   T   T   T
  0.7132158917039270  0.1376514416403494  0.6145893865860756   T   T   T
  0.7146921803185231  0.6342861570444066  0.6148667206873593   T   T   T
  0.9678683155758601  0.1214399964900059  0.6166990672031031   T   T   T
  0.9695259405029077  0.6369636662597040  0.6171307393652432   T   T   T
  0.2087795855881428  0.0977368563006973  0.8984588762559335   T   T   T
  0.1850519779754223  0.3791685641393099  0.7796122111697656   T   T   T
  0.1636933137297323  0.4759350791857356  0.9604386888980206   T   T   T
  0.2151701318936017  0.6580492471059222  0.8378936145390807   T   T   T
  0.0745625504477508  0.2282177024302905  0.8437973100813015   T   T   T
  0.2645117852979081  0.1562958421358855  0.9535183624045036   T   T   T
  0.1668672227213185  0.6521621778268585  0.9101636673499994   T   T   T
  0.0360689525141988  0.6882178245501330  0.7879641921376133   T   T   T
 
  0.00000000E+00  0.00000000E+00  0.00000000E+00
  0.00000000E+00  0.00000000E+00  0.00000000E+00
  0.00000000E+00  0.00000000E+00  0.00000000E+00
  0.00000000E+00  0.00000000E+00  0.00000000E+00
  0.00000000E+00  0.00000000E+00  0.00000000E+00
  0.00000000E+00  0.00000000E+00  0.00000000E+00
  0.00000000E+00  0.00000000E+00  0.00000000E+00
  0.00000000E+00  0.00000000E+00  0.00000000E+00
  0.00000000E+00  0.00000000E+00  0.00000000E+00
  0.00000000E+00  0.00000000E+00  0.00000000E+00
  0.00000000E+00  0.00000000E+00  0.00000000E+00
  0.00000000E+00  0.00000000E+00  0.00000000E+00
  0.00000000E+00  0.00000000E+00  0.00000000E+00
  0.00000000E+00  0.00000000E+00  0.00000000E+00
  0.00000000E+00  0.00000000E+00  0.00000000E+00
  0.00000000E+00  0.00000000E+00  0.00000000E+00
  0.00000000E+00  0.00000000E+00  0.00000000E+00
  0.00000000E+00  0.00000000E+00  0.00000000E+00
  0.00000000E+00  0.00000000E+00  0.00000000E+00
  0.00000000E+00  0.00000000E+00  0.00000000E+00
  0.00000000E+00  0.00000000E+00  0.00000000E+00
  0.00000000E+00  0.00000000E+00  0.00000000E+00
  0.00000000E+00  0.00000000E+00  0.00000000E+00
  0.00000000E+00  0.00000000E+00  0.00000000E+00
  0.00000000E+00  0.00000000E+00  0.00000000E+00
  0.00000000E+00  0.00000000E+00  0.00000000E+00
  0.00000000E+00  0.00000000E+00  0.00000000E+00
  0.00000000E+00  0.00000000E+00  0.00000000E+00
  0.00000000E+00  0.00000000E+00  0.00000000E+00
  0.00000000E+00  0.00000000E+00  0.00000000E+00
  0.00000000E+00  0.00000000E+00  0.00000000E+00
  0.00000000E+00  0.00000000E+00  0.00000000E+00
  0.00000000E+00  0.00000000E+00  0.00000000E+00
  0.00000000E+00  0.00000000E+00  0.00000000E+00
  0.00000000E+00  0.00000000E+00  0.00000000E+00
  0.00000000E+00  0.00000000E+00  0.00000000E+00
  0.00000000E+00  0.00000000E+00  0.00000000E+00
  0.00000000E+00  0.00000000E+00  0.00000000E+00
  0.00000000E+00  0.00000000E+00  0.00000000E+00
  0.00000000E+00  0.00000000E+00  0.00000000E+00
  0.00000000E+00  0.00000000E+00  0.00000000E+00
  0.00000000E+00  0.00000000E+00  0.00000000E+00
  0.00000000E+00  0.00000000E+00  0.00000000E+00
  0.00000000E+00  0.00000000E+00  0.00000000E+00
  0.00000000E+00  0.00000000E+00  0.00000000E+00
  0.00000000E+00  0.00000000E+00  0.00000000E+00
  0.00000000E+00  0.00000000E+00  0.00000000E+00
  0.00000000E+00  0.00000000E+00  0.00000000E+00
  0.00000000E+00  0.00000000E+00  0.00000000E+00
  0.00000000E+00  0.00000000E+00  0.00000000E+00
  0.00000000E+00  0.00000000E+00  0.00000000E+00
  0.00000000E+00  0.00000000E+00  0.00000000E+00
  0.00000000E+00  0.00000000E+00  0.00000000E+00
  0.00000000E+00  0.00000000E+00  0.00000000E+00
  0.00000000E+00  0.00000000E+00  0.00000000E+00
  0.00000000E+00  0.00000000E+00  0.00000000E+00
  0.00000000E+00  0.00000000E+00  0.00000000E+00
  0.00000000E+00  0.00000000E+00  0.00000000E+00
  0.00000000E+00  0.00000000E+00  0.00000000E+00
  0.00000000E+00  0.00000000E+00  0.00000000E+00
  0.00000000E+00  0.00000000E+00  0.00000000E+00
  0.00000000E+00  0.00000000E+00  0.00000000E+00
  0.00000000E+00  0.00000000E+00  0.00000000E+00
  0.00000000E+00  0.00000000E+00  0.00000000E+00
  0.00000000E+00  0.00000000E+00  0.00000000E+00
  0.00000000E+00  0.00000000E+00  0.00000000E+00
  0.00000000E+00  0.00000000E+00  0.00000000E+00
  0.00000000E+00  0.00000000E+00  0.00000000E+00
  0.00000000E+00  0.00000000E+00  0.00000000E+00
  0.00000000E+00  0.00000000E+00  0.00000000E+00
  0.00000000E+00  0.00000000E+00  0.00000000E+00
  0.00000000E+00  0.00000000E+00  0.00000000E+00
  0.00000000E+00  0.00000000E+00  0.00000000E+00
  0.00000000E+00  0.00000000E+00  0.00000000E+00
  0.00000000E+00  0.00000000E+00  0.00000000E+00
  0.00000000E+00  0.00000000E+00  0.00000000E+00
  0.00000000E+00  0.00000000E+00  0.00000000E+00
  0.00000000E+00  0.00000000E+00  0.00000000E+00
  0.00000000E+00  0.00000000E+00  0.00000000E+00
  0.00000000E+00  0.00000000E+00  0.00000000E+00
  0.00000000E+00  0.00000000E+00  0.00000000E+00
  0.00000000E+00  0.00000000E+00  0.00000000E+00
  0.00000000E+00  0.00000000E+00  0.00000000E+00
  0.00000000E+00  0.00000000E+00  0.00000000E+00
  0.00000000E+00  0.00000000E+00  0.00000000E+00
  0.00000000E+00  0.00000000E+00  0.00000000E+00
  0.00000000E+00  0.00000000E+00  0.00000000E+00
  0.00000000E+00  0.00000000E+00  0.00000000E+00
  0.00000000E+00  0.00000000E+00  0.00000000E+00
  0.00000000E+00  0.00000000E+00  0.00000000E+00
  0.00000000E+00  0.00000000E+00  0.00000000E+00
  0.00000000E+00  0.00000000E+00  0.00000000E+00
  0.00000000E+00  0.00000000E+00  0.00000000E+00
  0.00000000E+00  0.00000000E+00  0.00000000E+00
  0.00000000E+00  0.00000000E+00  0.00000000E+00
  0.00000000E+00  0.00000000E+00  0.00000000E+00
  0.00000000E+00  0.00000000E+00  0.00000000E+00
  0.00000000E+00  0.00000000E+00  0.00000000E+00
  0.00000000E+00  0.00000000E+00  0.00000000E+00
  0.00000000E+00  0.00000000E+00  0.00000000E+00
  0.00000000E+00  0.00000000E+00  0.00000000E+00
  0.00000000E+00  0.00000000E+00  0.00000000E+00
  0.00000000E+00  0.00000000E+00  0.00000000E+00
  0.00000000E+00  0.00000000E+00  0.00000000E+00
  0.00000000E+00  0.00000000E+00  0.00000000E+00
  0.00000000E+00  0.00000000E+00  0.00000000E+00
