K12 V48 O119                            
   1.00000000000000     
    11.0554125600000006    0.0000000000000000    0.0000000000000007
    -0.0000000000000007   11.6356429800000001    0.0000000000000007
     0.0000000000000000    0.0000000000000000   18.6053069399999984
   K    V    O 
    12    48   119
Selective dynamics
Direct
  0.0000000000000000  0.5782537600000026  0.2500000000000000   F   F   F
  0.3333333333333357  0.5782537600000026  0.2500000000000000   F   F   F
  0.6666666666666643  0.5782537600000026  0.2500000000000000   F   F   F
 -0.0002828101387779  0.4162594176845388  0.7498745720192735   T   T   T
  0.3333333333333357  0.4217462399999974  0.7500000000000000   F   F   F
  0.6666666666666643  0.4217462399999974  0.7500000000000000   F   F   F
  0.8333333333333357  0.0782537600000026  0.2500000000000000   F   F   F
  0.1666666666666643  0.0782537600000026  0.2500000000000000   F   F   F
  0.5000000000000000  0.0782537600000026  0.2500000000000000   F   F   F
  0.8311961340943943  0.9209782755461208  0.7492365665200755   T   T   T
  0.1702628986551680  0.9184015038095584  0.7492873402460569   T   T   T
  0.5000000000000000  0.9217462399999974  0.7500000000000000   F   F   F
  1.0002047474571274  0.9325700818431963  0.4191815372765182   T   T   T
  0.3333333333333357  0.9347524800000002  0.4219866099999976   F   F   F
  0.6666666666666643  0.9347524800000002  0.4219866099999976   F   F   F
  0.0024063963342335  0.0562768692419254  0.5801410240692799   T   T   T
  0.3344216893007931  0.0651387667027830  0.5761697131139140   T   T   T
  0.6709332974520621  0.0670758765885144  0.5780229385470607   T   T   T
  0.0000000000000000  0.9347524800000002  0.0780133900000024   F   F   F
  0.3333333333333357  0.9347524800000002  0.0780133900000024   F   F   F
  0.6666666666666643  0.9347524800000002  0.0780133900000024   F   F   F
  0.0000000000000000  0.0652475199999998  0.9219866099999976   F   F   F
  0.3333333333333357  0.0652475199999998  0.9219866099999976   F   F   F
  0.6666666666666643  0.0652475199999998  0.9219866099999976   F   F   F
  0.1668802918923042  0.4354420106847491  0.4228068385148228   T   T   T
  0.5000000000000000  0.4347524800000002  0.4219866099999976   F   F   F
  0.8330594748980685  0.4345913522158293  0.4224135608651237   T   T   T
  0.1677820243935716  0.5659107243940801  0.5792110750799990   T   T   T
  0.5000000000000000  0.5652475199999998  0.5780133900000024   F   F   F
  0.8333046612632838  0.5658582191522383  0.5787312039421251   T   T   T
  0.8333333333333357  0.4347524800000002  0.0780133900000024   F   F   F
  0.1666666666666643  0.4347524800000002  0.0780133900000024   F   F   F
  0.5000000000000000  0.4347524800000002  0.0780133900000024   F   F   F
  0.1666666666666643  0.5652475199999998  0.9219866099999976   F   F   F
  0.5000000000000000  0.5652475199999998  0.9219866099999976   F   F   F
  0.8333333333333357  0.5652475199999998  0.9219866099999976   F   F   F
  1.0003456822796997  0.2283963657685145  0.4182845408222722   T   T   T
  0.3326459464167613  0.2320561241177657  0.4201870316893411   T   T   T
  0.6671970166851533  0.2313298249057329  0.4203451424435604   T   T   T
  1.0019535680530913  0.7675093496340415  0.5802029584905583   T   T   T
  0.3333333333333357  0.7686988499999998  0.5800612000000029   F   F   F
  0.6666666666666643  0.7686988499999998  0.5800612000000029   F   F   F
  0.0000000000000000  0.2313011500000002  0.0800612000000029   F   F   F
  0.3333333333333357  0.2313011500000002  0.0800612000000029   F   F   F
  0.6666666666666643  0.2313011500000002  0.0800612000000029   F   F   F
  0.0000000000000000  0.7686988499999998  0.9199387999999971   F   F   F
  0.3333333333333357  0.7686988499999998  0.9199387999999971   F   F   F
  0.6666666666666643  0.7686988499999998  0.9199387999999971   F   F   F
  0.8333333333333357  0.7313011500000002  0.4199387999999971   F   F   F
  0.1666666666666643  0.7313011500000002  0.4199387999999971   F   F   F
  0.5000000000000000  0.7313011500000002  0.4199387999999971   F   F   F
  0.8321657789423594  0.2723081215697317  0.5809038919382057   T   T   T
  0.1683934556007705  0.2711034933872181  0.5799100142229907   T   T   T
  0.5000000000000000  0.2686988499999998  0.5800612000000029   F   F   F
  0.8333333333333357  0.7313011500000002  0.0800612000000029   F   F   F
  0.1666666666666643  0.7313011500000002  0.0800612000000029   F   F   F
  0.5000000000000000  0.7313011500000002  0.0800612000000029   F   F   F
  0.8333333333333357  0.2686988499999998  0.9199387999999971   F   F   F
  0.1666666666666643  0.2686988499999998  0.9199387999999971   F   F   F
  0.5000000000000000  0.2686988499999998  0.9199387999999971   F   F   F
  0.0013223820935347  0.0893813460868076  0.4544191674964841   T   T   T
  0.3291365918705811  0.0772827626053386  0.4541880295470836   T   T   T
  0.6715134454011691  0.0758082721935733  0.4562052526872699   T   T   T
  1.0001255286509469  0.9144342696722729  0.5435277322626757   T   T   T
  0.3319681863589957  0.9220541677398620  0.5461697625735675   T   T   T
  0.6692626271484721  0.9102780119776772  0.5463742480440487   T   T   T
  0.0000000000000000  0.0801719600000013  0.0465899900000011   F   F   F
  0.3333333333333357  0.0801719600000013  0.0465899900000011   F   F   F
  0.6666666666666643  0.0801719600000013  0.0465899900000011   F   F   F
  0.0000000000000000  0.9198280399999987  0.9534100099999989   F   F   F
  0.3333333333333357  0.9198280399999987  0.9534100099999989   F   F   F
  0.6666666666666643  0.9198280399999987  0.9534100099999989   F   F   F
  0.8348152352987812  0.5835810122137599  0.4534383401333477   T   T   T
  0.1649478867326799  0.5841503035447119  0.4539379954557985   T   T   T
  0.5000000000000000  0.5801719600000013  0.4534100099999989   F   F   F
  0.8375982649017305  0.4248755546582708  0.5453270284550336   T   T   T
  0.1627944341527792  0.4253090721699441  0.5457439939706040   T   T   T
  0.5000000000000000  0.4198280399999987  0.5465899900000011   F   F   F
  0.8333333333333357  0.5801719600000013  0.0465899900000011   F   F   F
  0.1666666666666643  0.5801719600000013  0.0465899900000011   F   F   F
  0.5000000000000000  0.5801719600000013  0.0465899900000011   F   F   F
  0.8333333333333357  0.4198280399999987  0.9534100099999989   F   F   F
  0.1666666666666643  0.4198280399999987  0.9534100099999989   F   F   F
  0.5000000000000000  0.4198280399999987  0.9534100099999989   F   F   F
  0.3370700863235918  0.2408577779870024  0.5579334570030242   T   T   T
  0.6640147983161605  0.2411830899466990  0.5590872347286832   T   T   T
  0.0000000000000000  0.7595458799999975  0.4418101899999982   F   F   F
  0.3333333333333357  0.7595458799999975  0.4418101899999982   F   F   F
  0.6666666666666643  0.7595458799999975  0.4418101899999982   F   F   F
  0.0000000000000000  0.2404541200000025  0.9418101899999982   F   F   F
  0.3333333333333357  0.2404541200000025  0.9418101899999982   F   F   F
  0.6666666666666643  0.2404541200000025  0.9418101899999982   F   F   F
  0.0000000000000000  0.7595458799999975  0.0581898100000018   F   F   F
  0.3333333333333357  0.7595458799999975  0.0581898100000018   F   F   F
  0.6666666666666643  0.7595458799999975  0.0581898100000018   F   F   F
  0.8333333333333357  0.7404541200000025  0.5581898100000018   F   F   F
  0.1666666666666643  0.7404541200000025  0.5581898100000018   F   F   F
  0.5000000000000000  0.7404541200000025  0.5581898100000018   F   F   F
  0.1610154608382794  0.2662455595323593  0.4459239382149309   T   T   T
  0.5000000000000000  0.2595458799999975  0.4418101899999982   F   F   F
  0.8392801454831147  0.2651297356353314  0.4451453164678094   T   T   T
  0.8333333333333357  0.7404541200000025  0.9418101899999982   F   F   F
  0.1666666666666643  0.7404541200000025  0.9418101899999982   F   F   F
  0.5000000000000000  0.7404541200000025  0.9418101899999982   F   F   F
  0.8333333333333357  0.2595458799999975  0.0581898100000018   F   F   F
  0.1666666666666643  0.2595458799999975  0.0581898100000018   F   F   F
  0.5000000000000000  0.2595458799999975  0.0581898100000018   F   F   F
  1.0009960425545341  0.2101326888417756  0.3323625675882806   T   T   T
  0.3333333333333357  0.2085854199999986  0.3343557999999973   F   F   F
  0.6666666666666643  0.2085854199999986  0.3343557999999973   F   F   F
  0.0000000000000000  0.7914145800000014  0.6656442000000027   F   F   F
  0.3333333333333357  0.7914145800000014  0.6656442000000027   F   F   F
  0.6666666666666643  0.7914145800000014  0.6656442000000027   F   F   F
  0.0000000000000000  0.2085854199999986  0.1656442000000027   F   F   F
  0.3333333333333357  0.2085854199999986  0.1656442000000027   F   F   F
  0.6666666666666643  0.2085854199999986  0.1656442000000027   F   F   F
  0.0000000000000000  0.7914145800000014  0.8343557999999973   F   F   F
  0.3333333333333357  0.7914145800000014  0.8343557999999973   F   F   F
  0.6666666666666643  0.7914145800000014  0.8343557999999973   F   F   F
  0.8333333333333357  0.7085854199999986  0.3343557999999973   F   F   F
  0.1666666666666643  0.7085854199999986  0.3343557999999973   F   F   F
  0.5000000000000000  0.7085854199999986  0.3343557999999973   F   F   F
  0.8398802197854975  0.2945185844069680  0.6670862106953481   T   T   T
  0.1567025536328155  0.2935531476634321  0.6660288111056746   T   T   T
  0.5000000000000000  0.2914145800000014  0.6656442000000027   F   F   F
  0.8333333333333357  0.7085854199999986  0.1656442000000027   F   F   F
  0.1666666666666643  0.7085854199999986  0.1656442000000027   F   F   F
  0.5000000000000000  0.7085854199999986  0.1656442000000027   F   F   F
  0.8329517415124318  0.2916058087923618  0.8344674401052397   T   T   T
  0.1671692898114192  0.2916125406398298  0.8344413897377034   T   T   T
  0.5000000000000000  0.2914145800000014  0.8343557999999973   F   F   F
 -0.0001169167322834  0.4010359409875291  0.4338703708314395   T   T   T
  0.3316133104869844  0.4039815288471633  0.4350277761415052   T   T   T
  0.6683898488375825  0.4028763590370072  0.4351929503779788   T   T   T
  0.0000241261694109  0.6052876773047985  0.5673929284072238   T   T   T
  0.3333333333333357  0.6005226999999991  0.5654753499999998   F   F   F
  0.6666666666666643  0.6005226999999991  0.5654753499999998   F   F   F
  0.0000000000000000  0.3994773000000009  0.0654753499999998   F   F   F
  0.3333333333333357  0.3994773000000009  0.0654753499999998   F   F   F
  0.6666666666666643  0.3994773000000009  0.0654753499999998   F   F   F
  0.0000000000000000  0.6005226999999991  0.9345246500000002   F   F   F
  0.3333333333333357  0.6005226999999991  0.9345246500000002   F   F   F
  0.6666666666666643  0.6005226999999991  0.9345246500000002   F   F   F
  0.8307106795227537  0.8946060831172655  0.4336963301811986   T   T   T
  0.1695475014907308  0.8943323240156900  0.4341302768206252   T   T   T
  0.5000000000000000  0.8994773000000009  0.4345246500000002   F   F   F
  0.8489675533788842  0.1095813746316678  0.5659836958797042   T   T   T
  0.1585549046117544  0.1071099079257741  0.5653414636843929   T   T   T
  0.5000000000000000  0.1005226999999991  0.5654753499999998   F   F   F
  0.1666666666666643  0.8994773000000009  0.0654753499999998   F   F   F
  0.5000000000000000  0.8994773000000009  0.0654753499999998   F   F   F
  0.8333333333333357  0.8994773000000009  0.0654753499999998   F   F   F
  0.8333333333333357  0.1005226999999991  0.9345246500000002   F   F   F
  0.1666666666666643  0.1005226999999991  0.9345246500000002   F   F   F
  0.5000000000000000  0.1005226999999991  0.9345246500000002   F   F   F
  0.0004160591732131  0.9558565041517790  0.3328132201574108   T   T   T
  0.3333333333333357  0.9530042000000023  0.3358289499999998   F   F   F
  0.6666666666666643  0.9530042000000023  0.3358289499999998   F   F   F
  1.0023867032006701  0.0362089936917067  0.6662522769043240   T   T   T
  0.3290506845682289  0.0490283102182172  0.6627423832294836   T   T   T
  0.6739332152079859  0.0444312687696969  0.6645944307645159   T   T   T
  0.0000000000000000  0.9530042000000023  0.1641710500000002   F   F   F
  0.3333333333333357  0.9530042000000023  0.1641710500000002   F   F   F
  0.6666666666666643  0.9530042000000023  0.1641710500000002   F   F   F
  0.0000000000000000  0.0469957999999977  0.8358289499999998   F   F   F
  0.3333333333333357  0.0469957999999977  0.8358289499999998   F   F   F
  0.6666666666666643  0.0469957999999977  0.8358289499999998   F   F   F
  0.8334972881927449  0.4536970860649210  0.3361904180057855   T   T   T
  0.1655422762175923  0.4556779785777419  0.3366636630569081   T   T   T
  0.5000000000000000  0.4530042000000023  0.3358289499999998   F   F   F
  0.8326300409288303  0.5471165426174740  0.6649677055469241   T   T   T
  0.1672193450053619  0.5480860610673884  0.6655352362256560   T   T   T
  0.5000000000000000  0.5469957999999977  0.6641710500000002   F   F   F
  0.8333333333333357  0.4530042000000023  0.1641710500000002   F   F   F
  0.1666666666666643  0.4530042000000023  0.1641710500000002   F   F   F
  0.5000000000000000  0.4530042000000023  0.1641710500000002   F   F   F
  0.8333333333333357  0.5469957999999977  0.8358289499999998   F   F   F
  0.1666666666666643  0.5469957999999977  0.8358289499999998   F   F   F
  0.5000000000000000  0.5469957999999977  0.8358289499999998   F   F   F
 
  0.00000000E+00  0.00000000E+00  0.00000000E+00
  0.00000000E+00  0.00000000E+00  0.00000000E+00
  0.00000000E+00  0.00000000E+00  0.00000000E+00
  0.00000000E+00  0.00000000E+00  0.00000000E+00
  0.00000000E+00  0.00000000E+00  0.00000000E+00
  0.00000000E+00  0.00000000E+00  0.00000000E+00
  0.00000000E+00  0.00000000E+00  0.00000000E+00
  0.00000000E+00  0.00000000E+00  0.00000000E+00
  0.00000000E+00  0.00000000E+00  0.00000000E+00
  0.00000000E+00  0.00000000E+00  0.00000000E+00
  0.00000000E+00  0.00000000E+00  0.00000000E+00
  0.00000000E+00  0.00000000E+00  0.00000000E+00
  0.00000000E+00  0.00000000E+00  0.00000000E+00
  0.00000000E+00  0.00000000E+00  0.00000000E+00
  0.00000000E+00  0.00000000E+00  0.00000000E+00
  0.00000000E+00  0.00000000E+00  0.00000000E+00
  0.00000000E+00  0.00000000E+00  0.00000000E+00
  0.00000000E+00  0.00000000E+00  0.00000000E+00
  0.00000000E+00  0.00000000E+00  0.00000000E+00
  0.00000000E+00  0.00000000E+00  0.00000000E+00
  0.00000000E+00  0.00000000E+00  0.00000000E+00
  0.00000000E+00  0.00000000E+00  0.00000000E+00
  0.00000000E+00  0.00000000E+00  0.00000000E+00
  0.00000000E+00  0.00000000E+00  0.00000000E+00
  0.00000000E+00  0.00000000E+00  0.00000000E+00
  0.00000000E+00  0.00000000E+00  0.00000000E+00
  0.00000000E+00  0.00000000E+00  0.00000000E+00
  0.00000000E+00  0.00000000E+00  0.00000000E+00
  0.00000000E+00  0.00000000E+00  0.00000000E+00
  0.00000000E+00  0.00000000E+00  0.00000000E+00
  0.00000000E+00  0.00000000E+00  0.00000000E+00
  0.00000000E+00  0.00000000E+00  0.00000000E+00
  0.00000000E+00  0.00000000E+00  0.00000000E+00
  0.00000000E+00  0.00000000E+00  0.00000000E+00
  0.00000000E+00  0.00000000E+00  0.00000000E+00
  0.00000000E+00  0.00000000E+00  0.00000000E+00
  0.00000000E+00  0.00000000E+00  0.00000000E+00
  0.00000000E+00  0.00000000E+00  0.00000000E+00
  0.00000000E+00  0.00000000E+00  0.00000000E+00
  0.00000000E+00  0.00000000E+00  0.00000000E+00
  0.00000000E+00  0.00000000E+00  0.00000000E+00
  0.00000000E+00  0.00000000E+00  0.00000000E+00
  0.00000000E+00  0.00000000E+00  0.00000000E+00
  0.00000000E+00  0.00000000E+00  0.00000000E+00
  0.00000000E+00  0.00000000E+00  0.00000000E+00
  0.00000000E+00  0.00000000E+00  0.00000000E+00
  0.00000000E+00  0.00000000E+00  0.00000000E+00
  0.00000000E+00  0.00000000E+00  0.00000000E+00
  0.00000000E+00  0.00000000E+00  0.00000000E+00
  0.00000000E+00  0.00000000E+00  0.00000000E+00
  0.00000000E+00  0.00000000E+00  0.00000000E+00
  0.00000000E+00  0.00000000E+00  0.00000000E+00
  0.00000000E+00  0.00000000E+00  0.00000000E+00
  0.00000000E+00  0.00000000E+00  0.00000000E+00
  0.00000000E+00  0.00000000E+00  0.00000000E+00
  0.00000000E+00  0.00000000E+00  0.00000000E+00
  0.00000000E+00  0.00000000E+00  0.00000000E+00
  0.00000000E+00  0.00000000E+00  0.00000000E+00
  0.00000000E+00  0.00000000E+00  0.00000000E+00
  0.00000000E+00  0.00000000E+00  0.00000000E+00
  0.00000000E+00  0.00000000E+00  0.00000000E+00
  0.00000000E+00  0.00000000E+00  0.00000000E+00
  0.00000000E+00  0.00000000E+00  0.00000000E+00
  0.00000000E+00  0.00000000E+00  0.00000000E+00
  0.00000000E+00  0.00000000E+00  0.00000000E+00
  0.00000000E+00  0.00000000E+00  0.00000000E+00
  0.00000000E+00  0.00000000E+00  0.00000000E+00
  0.00000000E+00  0.00000000E+00  0.00000000E+00
  0.00000000E+00  0.00000000E+00  0.00000000E+00
  0.00000000E+00  0.00000000E+00  0.00000000E+00
  0.00000000E+00  0.00000000E+00  0.00000000E+00
  0.00000000E+00  0.00000000E+00  0.00000000E+00
  0.00000000E+00  0.00000000E+00  0.00000000E+00
  0.00000000E+00  0.00000000E+00  0.00000000E+00
  0.00000000E+00  0.00000000E+00  0.00000000E+00
  0.00000000E+00  0.00000000E+00  0.00000000E+00
  0.00000000E+00  0.00000000E+00  0.00000000E+00
  0.00000000E+00  0.00000000E+00  0.00000000E+00
  0.00000000E+00  0.00000000E+00  0.00000000E+00
  0.00000000E+00  0.00000000E+00  0.00000000E+00
  0.00000000E+00  0.00000000E+00  0.00000000E+00
  0.00000000E+00  0.00000000E+00  0.00000000E+00
  0.00000000E+00  0.00000000E+00  0.00000000E+00
  0.00000000E+00  0.00000000E+00  0.00000000E+00
  0.00000000E+00  0.00000000E+00  0.00000000E+00
  0.00000000E+00  0.00000000E+00  0.00000000E+00
  0.00000000E+00  0.00000000E+00  0.00000000E+00
  0.00000000E+00  0.00000000E+00  0.00000000E+00
  0.00000000E+00  0.00000000E+00  0.00000000E+00
  0.00000000E+00  0.00000000E+00  0.00000000E+00
  0.00000000E+00  0.00000000E+00  0.00000000E+00
  0.00000000E+00  0.00000000E+00  0.00000000E+00
  0.00000000E+00  0.00000000E+00  0.00000000E+00
  0.00000000E+00  0.00000000E+00  0.00000000E+00
  0.00000000E+00  0.00000000E+00  0.00000000E+00
  0.00000000E+00  0.00000000E+00  0.00000000E+00
  0.00000000E+00  0.00000000E+00  0.00000000E+00
  0.00000000E+00  0.00000000E+00  0.00000000E+00
  0.00000000E+00  0.00000000E+00  0.00000000E+00
  0.00000000E+00  0.00000000E+00  0.00000000E+00
  0.00000000E+00  0.00000000E+00  0.00000000E+00
  0.00000000E+00  0.00000000E+00  0.00000000E+00
  0.00000000E+00  0.00000000E+00  0.00000000E+00
  0.00000000E+00  0.00000000E+00  0.00000000E+00
  0.00000000E+00  0.00000000E+00  0.00000000E+00
  0.00000000E+00  0.00000000E+00  0.00000000E+00
  0.00000000E+00  0.00000000E+00  0.00000000E+00
  0.00000000E+00  0.00000000E+00  0.00000000E+00
  0.00000000E+00  0.00000000E+00  0.00000000E+00
  0.00000000E+00  0.00000000E+00  0.00000000E+00
  0.00000000E+00  0.00000000E+00  0.00000000E+00
  0.00000000E+00  0.00000000E+00  0.00000000E+00
  0.00000000E+00  0.00000000E+00  0.00000000E+00
  0.00000000E+00  0.00000000E+00  0.00000000E+00
  0.00000000E+00  0.00000000E+00  0.00000000E+00
  0.00000000E+00  0.00000000E+00  0.00000000E+00
  0.00000000E+00  0.00000000E+00  0.00000000E+00
  0.00000000E+00  0.00000000E+00  0.00000000E+00
  0.00000000E+00  0.00000000E+00  0.00000000E+00
  0.00000000E+00  0.00000000E+00  0.00000000E+00
  0.00000000E+00  0.00000000E+00  0.00000000E+00
  0.00000000E+00  0.00000000E+00  0.00000000E+00
  0.00000000E+00  0.00000000E+00  0.00000000E+00
  0.00000000E+00  0.00000000E+00  0.00000000E+00
  0.00000000E+00  0.00000000E+00  0.00000000E+00
  0.00000000E+00  0.00000000E+00  0.00000000E+00
  0.00000000E+00  0.00000000E+00  0.00000000E+00
  0.00000000E+00  0.00000000E+00  0.00000000E+00
  0.00000000E+00  0.00000000E+00  0.00000000E+00
  0.00000000E+00  0.00000000E+00  0.00000000E+00
  0.00000000E+00  0.00000000E+00  0.00000000E+00
  0.00000000E+00  0.00000000E+00  0.00000000E+00
  0.00000000E+00  0.00000000E+00  0.00000000E+00
  0.00000000E+00  0.00000000E+00  0.00000000E+00
  0.00000000E+00  0.00000000E+00  0.00000000E+00
  0.00000000E+00  0.00000000E+00  0.00000000E+00
  0.00000000E+00  0.00000000E+00  0.00000000E+00
  0.00000000E+00  0.00000000E+00  0.00000000E+00
  0.00000000E+00  0.00000000E+00  0.00000000E+00
  0.00000000E+00  0.00000000E+00  0.00000000E+00
  0.00000000E+00  0.00000000E+00  0.00000000E+00
  0.00000000E+00  0.00000000E+00  0.00000000E+00
  0.00000000E+00  0.00000000E+00  0.00000000E+00
  0.00000000E+00  0.00000000E+00  0.00000000E+00
  0.00000000E+00  0.00000000E+00  0.00000000E+00
  0.00000000E+00  0.00000000E+00  0.00000000E+00
  0.00000000E+00  0.00000000E+00  0.00000000E+00
  0.00000000E+00  0.00000000E+00  0.00000000E+00
  0.00000000E+00  0.00000000E+00  0.00000000E+00
  0.00000000E+00  0.00000000E+00  0.00000000E+00
  0.00000000E+00  0.00000000E+00  0.00000000E+00
  0.00000000E+00  0.00000000E+00  0.00000000E+00
  0.00000000E+00  0.00000000E+00  0.00000000E+00
  0.00000000E+00  0.00000000E+00  0.00000000E+00
  0.00000000E+00  0.00000000E+00  0.00000000E+00
  0.00000000E+00  0.00000000E+00  0.00000000E+00
  0.00000000E+00  0.00000000E+00  0.00000000E+00
  0.00000000E+00  0.00000000E+00  0.00000000E+00
  0.00000000E+00  0.00000000E+00  0.00000000E+00
  0.00000000E+00  0.00000000E+00  0.00000000E+00
  0.00000000E+00  0.00000000E+00  0.00000000E+00
  0.00000000E+00  0.00000000E+00  0.00000000E+00
  0.00000000E+00  0.00000000E+00  0.00000000E+00
  0.00000000E+00  0.00000000E+00  0.00000000E+00
  0.00000000E+00  0.00000000E+00  0.00000000E+00
  0.00000000E+00  0.00000000E+00  0.00000000E+00
  0.00000000E+00  0.00000000E+00  0.00000000E+00
  0.00000000E+00  0.00000000E+00  0.00000000E+00
  0.00000000E+00  0.00000000E+00  0.00000000E+00
  0.00000000E+00  0.00000000E+00  0.00000000E+00
  0.00000000E+00  0.00000000E+00  0.00000000E+00
  0.00000000E+00  0.00000000E+00  0.00000000E+00
  0.00000000E+00  0.00000000E+00  0.00000000E+00
  0.00000000E+00  0.00000000E+00  0.00000000E+00
  0.00000000E+00  0.00000000E+00  0.00000000E+00
  0.00000000E+00  0.00000000E+00  0.00000000E+00
  0.00000000E+00  0.00000000E+00  0.00000000E+00
  0.00000000E+00  0.00000000E+00  0.00000000E+00
  0.00000000E+00  0.00000000E+00  0.00000000E+00
