K2 V8 Zn1 O20                           
    1.000000000000000     
    11.7518258786403162    0.0000000000000000    2.0189697889847111
     0.0000000000000000    3.7510003616179968    0.0000000000000000
     2.0210122923181455    0.0000000000000000    9.5305173009858350
   Zn   K    V    O 
     1     2     8    20
Direct
  0.2530916008465111  0.5000000000000000  0.5699369888054862
  0.5560483672637081  0.0000000000000000  0.5442458379735394
  0.9332062182640002  0.5000000000000000  0.4585812679815635
  0.1123390587843621  0.0000000000000000  0.8491023971115723
  0.8816866144896263  0.0000000000000000  0.1504228242483641
  0.6071622707992614  0.5000000000000000  0.8518177250234411
  0.3745429519804153  0.5000000000000000  0.1734891152565935
  0.8127102976590805  0.0000000000000000  0.8432057208486341
  0.1825829983682075  0.0000000000000000  0.1590858073519138
  0.3044139454770645  0.5000000000000000  0.8620836504595835
  0.6759608204770871  0.5000000000000000  0.1591731328365290
  0.6367603986072015  0.0000000000000000  0.8765123915384020
  0.3519350572491641  0.0000000000000000  0.1441445047191049
  0.1353991095510952  0.5000000000000000  0.8667904895746831
  0.8531103135544312  0.5000000000000000  0.1250478160497366
  0.9408031608630989  0.0000000000000000  0.8931022486421393
  0.0409101142088211  0.0000000000000000  0.0872073215949616
  0.4498047820025893  0.5000000000000000  0.9112950893450612
  0.5493923557970806  0.5000000000000000  0.1071438742369018
  0.2618527300796957  0.0000000000000000  0.9000105589345917
  0.7222867376623566  0.0000000000000000  0.1150989549738358
  0.7678231586984942  0.5000000000000000  0.8863286115957010
  0.2288126912052186  0.5000000000000000  0.1072317478500750
  0.1783408263625347  0.0000000000000000  0.6510032889902844
  0.8381459983857938  0.0000000000000000  0.3306108179039430
  0.6512746767617963  0.5000000000000000  0.6709601440427326
  0.3305936473833893  0.5000000000000000  0.3606784507384079
  0.8720157585518585  0.0000000000000000  0.6641714893239590
  0.1004915915466797  0.0000000000000000  0.3373645229180193
  0.3735121915315547  0.5000000000000000  0.6722660658703417
  0.6158466984449467  0.5000000000000000  0.3385538099265777
 
  0.00000000E+00  0.00000000E+00  0.00000000E+00
  0.00000000E+00  0.00000000E+00  0.00000000E+00
  0.00000000E+00  0.00000000E+00  0.00000000E+00
  0.00000000E+00  0.00000000E+00  0.00000000E+00
  0.00000000E+00  0.00000000E+00  0.00000000E+00
  0.00000000E+00  0.00000000E+00  0.00000000E+00
  0.00000000E+00  0.00000000E+00  0.00000000E+00
  0.00000000E+00  0.00000000E+00  0.00000000E+00
  0.00000000E+00  0.00000000E+00  0.00000000E+00
  0.00000000E+00  0.00000000E+00  0.00000000E+00
  0.00000000E+00  0.00000000E+00  0.00000000E+00
  0.00000000E+00  0.00000000E+00  0.00000000E+00
  0.00000000E+00  0.00000000E+00  0.00000000E+00
  0.00000000E+00  0.00000000E+00  0.00000000E+00
  0.00000000E+00  0.00000000E+00  0.00000000E+00
  0.00000000E+00  0.00000000E+00  0.00000000E+00
  0.00000000E+00  0.00000000E+00  0.00000000E+00
  0.00000000E+00  0.00000000E+00  0.00000000E+00
  0.00000000E+00  0.00000000E+00  0.00000000E+00
  0.00000000E+00  0.00000000E+00  0.00000000E+00
  0.00000000E+00  0.00000000E+00  0.00000000E+00
  0.00000000E+00  0.00000000E+00  0.00000000E+00
  0.00000000E+00  0.00000000E+00  0.00000000E+00
  0.00000000E+00  0.00000000E+00  0.00000000E+00
  0.00000000E+00  0.00000000E+00  0.00000000E+00
  0.00000000E+00  0.00000000E+00  0.00000000E+00
  0.00000000E+00  0.00000000E+00  0.00000000E+00
  0.00000000E+00  0.00000000E+00  0.00000000E+00
  0.00000000E+00  0.00000000E+00  0.00000000E+00
  0.00000000E+00  0.00000000E+00  0.00000000E+00
  0.00000000E+00  0.00000000E+00  0.00000000E+00
