K2 V8 Zn1 O19                           
    1.000000000000000     
    11.7052292929066244    0.0000000000000000    1.6556123975420580
     0.0000000000000000    3.7969410351933832    0.0000000000000000
     1.3804539086504755    0.0000000000000000    9.2652290515836437
   Zn   K    V    O 
     1     2     8    19
Direct
  0.2812383248429444  0.0000000000000000  0.4066516303629900
  0.5380547584935209  0.0000000000000000  0.5456171421795576
  0.0087533993185281  0.5000000000000000  0.5049840275541057
  0.1157206628479131  0.0000000000000000  0.7969763706642036
  0.9045370553455652  0.0000000000000000  0.1877164764256475
  0.6113017243421330  0.5000000000000000  0.8480240192275884
  0.4043263332322577  0.5000000000000000  0.1406560802867001
  0.7977444640911355  0.0000000000000000  0.9021770422166943
  0.2056488865595458  0.0000000000000000  0.1248875318534045
  0.3009966691387154  0.5000000000000000  0.8342933745463467
  0.7008388170116896  0.5000000000000000  0.1760195607214018
  0.6471293981693041  0.0000000000000000  0.8638640255451274
  0.3677654146152953  0.0000000000000000  0.1373086865439671
  0.1317734758834480  0.5000000000000000  0.8347511590458921
  0.8717862639511299  0.5000000000000000  0.1626963801527651
  0.9444567461850096  0.0000000000000000  0.8027332986677850
  0.0473609072677793  0.0000000000000000  0.0782039797285030
  0.4568229656591457  0.5000000000000000  0.8983405245315543
  0.5592083721410085  0.5000000000000000  0.1057637781195303
  0.2574295899268750  0.0000000000000000  0.8782561152754707
  0.7518334757098153  0.0000000000000000  0.1194939987285430
  0.7632892057314268  0.5000000000000000  0.9143254793641084
  0.2464008476560625  0.5000000000000000  0.0804830979338243
  0.1668428760000246  0.0000000000000000  0.6088091655065981
  0.8977163829634652  0.0000000000000000  0.3640846205630979
  0.6524558559420176  0.5000000000000000  0.6663404246029163
  0.3371328627007734  0.5000000000000000  0.3480843074885537
  0.1400213878644395  0.0000000000000000  0.3118319221867505
  0.3766770660161144  0.5000000000000000  0.6563886055525319
  0.6357618103929109  0.5000000000000000  0.3549612484979348
 
  0.00000000E+00  0.00000000E+00  0.00000000E+00
  0.00000000E+00  0.00000000E+00  0.00000000E+00
  0.00000000E+00  0.00000000E+00  0.00000000E+00
  0.00000000E+00  0.00000000E+00  0.00000000E+00
  0.00000000E+00  0.00000000E+00  0.00000000E+00
  0.00000000E+00  0.00000000E+00  0.00000000E+00
  0.00000000E+00  0.00000000E+00  0.00000000E+00
  0.00000000E+00  0.00000000E+00  0.00000000E+00
  0.00000000E+00  0.00000000E+00  0.00000000E+00
  0.00000000E+00  0.00000000E+00  0.00000000E+00
  0.00000000E+00  0.00000000E+00  0.00000000E+00
  0.00000000E+00  0.00000000E+00  0.00000000E+00
  0.00000000E+00  0.00000000E+00  0.00000000E+00
  0.00000000E+00  0.00000000E+00  0.00000000E+00
  0.00000000E+00  0.00000000E+00  0.00000000E+00
  0.00000000E+00  0.00000000E+00  0.00000000E+00
  0.00000000E+00  0.00000000E+00  0.00000000E+00
  0.00000000E+00  0.00000000E+00  0.00000000E+00
  0.00000000E+00  0.00000000E+00  0.00000000E+00
  0.00000000E+00  0.00000000E+00  0.00000000E+00
  0.00000000E+00  0.00000000E+00  0.00000000E+00
  0.00000000E+00  0.00000000E+00  0.00000000E+00
  0.00000000E+00  0.00000000E+00  0.00000000E+00
  0.00000000E+00  0.00000000E+00  0.00000000E+00
  0.00000000E+00  0.00000000E+00  0.00000000E+00
  0.00000000E+00  0.00000000E+00  0.00000000E+00
  0.00000000E+00  0.00000000E+00  0.00000000E+00
  0.00000000E+00  0.00000000E+00  0.00000000E+00
  0.00000000E+00  0.00000000E+00  0.00000000E+00
  0.00000000E+00  0.00000000E+00  0.00000000E+00
