Na2 Fe80 Co48 S2                        
   1.00000000000000     
     9.9634609566234982    0.0000000000000000    0.0151289702272597
     3.3293508209599403    9.3783526594987556    0.0293803577450063
     0.0000000000000000    0.0000000000000000   32.5363995943291116
   Na   Fe   Co   S 
     2    80    48     2
Selective dynamics
Direct
  0.1686598505749650  0.8942692053995235  0.7969450537302510   T   T   T
  0.0159169956365257  0.5610510072682774  0.7966722829601076   T   T   T
 -0.0045472619500509 -0.0014237172683720  0.7193813498437309   T   T   T
  0.1250000000000000  0.6250000000000000  0.2812500000000000   F   F   F
  0.2500000000000000  0.2500000000000000  0.3437500000000000   F   F   F
  0.3750000000000000  0.8750000000000000  0.4062500000000000   F   F   F
  0.5000000000000000  0.5000000000000000  0.4687500000000000   F   F   F
  0.6250000000000000  0.1250000000000000  0.5312500000000000   F   F   F
  0.7500000000000000  0.7500000000000000  0.5937500000000000   F   F   F
  0.8754257121814121  0.3736945868830972  0.6559570427719642   T   T   T
  0.8750000000000000  0.1250000000000000  0.2812500000000000   F   F   F
  0.0000000000000000  0.7500000000000000  0.3437500000000000   F   F   F
  0.1250000000000000  0.3750000000000000  0.4062500000000000   F   F   F
  0.2500000000000000  0.0000000000000000  0.4687500000000000   F   F   F
  0.3750000000000000  0.6250000000000000  0.5312500000000000   F   F   F
  0.5000000000000000  0.2500000000000000  0.5937500000000000   F   F   F
  0.6242111776753005  0.8736321788001343  0.6575338109529120   T   T   T
  0.7545194234821738  0.4964136046900416  0.7189411856888509   T   T   T
  0.5000000000000000  0.2500000000000000  0.3437500000000000   F   F   F
  0.6250000000000000  0.8750000000000000  0.4062500000000000   F   F   F
  0.7500000000000000  0.5000000000000000  0.4687500000000000   F   F   F
  0.8750000000000000  0.1250000000000000  0.5312500000000000   F   F   F
  0.0000000000000000  0.7500000000000000  0.5937500000000000   F   F   F
  0.1265271124282748  0.3736187502768610  0.6556957888819569   T   T   T
  0.2448106822227619  0.0012727109380865  0.7159282133497211   T   T   T
  0.3750000000000000  0.6250000000000000  0.2812500000000000   F   F   F
  0.1249059120620544  0.8749059120620544  0.2812029560310236   F   F   F
  0.2499059120620544  0.4999059120620544  0.3437029560310236   F   F   F
  0.3749059120620544  0.1249059120620544  0.4062029560310236   F   F   F
  0.4999059120620544  0.7499059120620544  0.4687029560310236   F   F   F
  0.6249059120620544  0.3749059120620544  0.5312029560310236   F   F   F
  0.7499059120620544  0.9999059120620544  0.5937029560310236   F   F   F
  0.8741828676477759  0.6254395473017798  0.6561490280701179   T   T   T
  0.0000005884679282  0.2498249552639833  0.7191760720900394   T   T   T
  0.2500940879379456  0.0000940879379456  0.3437970439689764   F   F   F
  0.3750940879379456  0.6250940879379456  0.4062970439689764   F   F   F
  0.5000940879379456  0.2500940879379456  0.4687970439689764   F   F   F
  0.6250940879379456  0.8750940879379456  0.5312970439689764   F   F   F
  0.7500940879379456  0.5000940879379456  0.5937970439689764   F   F   F
  0.8745103165954035  0.1231622331255107  0.6566197877414948   T   T   T
  0.0063418317779047  0.7392578921532366  0.7179290600863789   T   T   T
  0.1250940879379456  0.3750940879379456  0.2812970439689764   F   F   F
  0.7500000000000000  0.2500000000000000  0.3437500000000000   F   F   F
  0.8750000000000000  0.8750000000000000  0.4062500000000000   F   F   F
  0.0000000000000000  0.5000000000000000  0.4687500000000000   F   F   F
  0.1250000000000000  0.1250000000000000  0.5312500000000000   F   F   F
  0.2500000000000000  0.7500000000000000  0.5937500000000000   F   F   F
  0.3754817725570722  0.3747901854262476  0.6565461443817547   T   T   T
  0.4940303780602288 -0.0005701952484916  0.7180094328269065   T   T   T
  0.6250000000000000  0.6250000000000000  0.2812500000000000   F   F   F
  0.6250000000000000  0.3750000000000000  0.4062500000000000   F   F   F
  0.7500000000000000  0.0000000000000000  0.4687500000000000   F   F   F
  0.8750000000000000  0.6250000000000000  0.5312500000000000   F   F   F
  0.0000000000000000  0.2500000000000000  0.5937500000000000   F   F   F
  0.1227833512452857  0.8757321557098058  0.6561873396990282   T   T   T
  0.2501511642227410  0.4959677607704417  0.7215101224675271   T   T   T
  0.3750000000000000  0.1250000000000000  0.2812500000000000   F   F   F
  0.5000000000000000  0.7500000000000000  0.3437500000000000   F   F   F
  0.0000000000000000  0.2500000000000000  0.3437500000000000   F   F   F
  0.1250000000000000  0.8750000000000000  0.4062500000000000   F   F   F
  0.2500000000000000  0.5000000000000000  0.4687500000000000   F   F   F
  0.3750000000000000  0.1250000000000000  0.5312500000000000   F   F   F
  0.5000000000000000  0.7500000000000000  0.5937500000000000   F   F   F
  0.6256832126742810  0.3739412548368428  0.6561221055663932   T   T   T
  0.7406722975346340  0.0055485667539730  0.7198368070243164   T   T   T
  0.8750000000000000  0.6250000000000000  0.2812500000000000   F   F   F
  0.8749059120620544  0.1249059120620544  0.4062029560310236   F   F   F
  0.9999059120620544  0.7499059120620544  0.4687029560310236   F   F   F
  0.1249059120620544  0.3749059120620544  0.5312029560310236   F   F   F
  0.2499059120620544  0.9999059120620544  0.5937029560310236   F   F   F
  0.3759127017652879  0.6242668777203625  0.6557817355404256   T   T   T
  0.4997935097691515  0.2493159743227611  0.7183799894087886   T   T   T
  0.6249059120620544  0.8749059120620544  0.2812029560310236   F   F   F
  0.7499059120620544  0.4999059120620544  0.3437029560310236   F   F   F
  0.7500940879379456  0.0000940879379456  0.3437970439689764   F   F   F
  0.8750940879379456  0.6250940879379456  0.4062970439689764   F   F   F
  0.0000940879379456  0.2500940879379456  0.4687970439689764   F   F   F
  0.1250940879379456  0.8750940879379456  0.5312970439689764   F   F   F
  0.2500940879379456  0.5000940879379456  0.5937970439689764   F   F   F
  0.3743759252593876  0.1241634495306982  0.6564117650320834   T   T   T
  0.5004911964445493  0.7469586770306342  0.7216894902446153   T   T   T
  0.6250940879379456  0.3750940879379456  0.2812970439689764   F   F   F
  0.1250000000000000  0.1250000000000000  0.2812500000000000   F   F   F
  0.2500000000000000  0.7500000000000000  0.3437500000000000   F   F   F
  0.3750000000000000  0.3750000000000000  0.4062500000000000   F   F   F
  0.5000000000000000  0.0000000000000000  0.4687500000000000   F   F   F
  0.6250000000000000  0.6250000000000000  0.5312500000000000   F   F   F
  0.7500000000000000  0.2500000000000000  0.5937500000000000   F   F   F
  0.8745263104919923  0.8743243034451269  0.6565661493521392   T   T   T
  0.0017609489132672  0.4954288614011921  0.7138107943656544   T   T   T
  0.6245069445799984  0.1251643518066672  0.4063321759033371   F   F   F
  0.7495069445799984  0.7501643518066672  0.4688321759033371   F   F   F
  0.8745069445799984  0.3751643518066672  0.5313321759033371   F   F   F
  0.9995069445799984  0.0001643518066672  0.5938321759033371   F   F   F
  0.1268068510037161  0.6237847928989547  0.6561412675714428   T   T   T
  0.2501869608412113  0.2482602966801525  0.7157473294263166   T   T   T
  0.3745069445799913  0.8751643518066672  0.2813321759033371   F   F   F
  0.4995069445799984  0.5001643518066672  0.3438321759033371   F   F   F
  0.0004930554200016  0.9998356481933328  0.3436678240966629   F   F   F
  0.1254930554200016  0.6248356481933328  0.4061678240966629   F   F   F
  0.2504930554200016  0.2498356481933328  0.4686678240966629   F   F   F
  0.3754930554200016  0.8748356481933328  0.5311678240966629   F   F   F
  0.5004930554200016  0.4998356481933328  0.5936678240966629   F   F   F
  0.6244302078657131  0.1230040584675023  0.6564184140180633   T   T   T
  0.7499604328009688  0.7459798479093401  0.7175529631122296   T   T   T
  0.8754930554200016  0.3748356481933328  0.2811678240966629   F   F   F
  0.6250000000000000  0.1250000000000000  0.2812500000000000   F   F   F
  0.7500000000000000  0.7500000000000000  0.3437500000000000   F   F   F
  0.8750000000000000  0.3750000000000000  0.4062500000000000   F   F   F
  0.0000000000000000  0.0000000000000000  0.4687500000000000   F   F   F
  0.1250000000000000  0.6250000000000000  0.5312500000000000   F   F   F
  0.2500000000000000  0.2500000000000000  0.5937500000000000   F   F   F
  0.3753706663311075  0.8731351528356943  0.6563018672682139   T   T   T
  0.5028757830407103  0.4971604067511621  0.7167291541180656   T   T   T
  0.8745069445799984  0.8751643518066672  0.2813321759033371   F   F   F
  0.9995069445799984  0.5001643518066672  0.3438321759033371   F   F   F
  0.1245069445799984  0.1251643518066672  0.4063321759033371   F   F   F
  0.2495069445799984  0.7501643518066672  0.4688321759033371   F   F   F
  0.3745069445799984  0.3751643518066672  0.5313321759033371   F   F   F
  0.4995069445799984  0.0001643518066672  0.5938321759033371   F   F   F
  0.6249576349663460  0.6242398511992360  0.6570766875169526   T   T   T
  0.7504655663116336  0.2494827409018228  0.7151225918318590   T   T   T
  0.5004930554200016  0.9998356481933328  0.3436678240966629   F   F   F
  0.6254930554200016  0.6248356481933328  0.4061678240966629   F   F   F
  0.7504930554200016  0.2498356481933328  0.4686678240966629   F   F   F
  0.8754930554200016  0.8748356481933328  0.5311678240966629   F   F   F
  0.0004930554200016  0.4998356481933328  0.5936678240966629   F   F   F
  0.1222506370781053  0.1245929722706332  0.6557146644868148   T   T   T
  0.2515348808978616  0.7502199541580949  0.7159624814040249   T   T   T
  0.3754930554200016  0.3748356481933328  0.2811678240966629   F   F   F
  0.3603436497091786  0.6104377077621039  0.7692106391340473   T   T   T
 -0.1089998331257234  0.8802051468896551  0.7716281829451080   T   T   T
 
  0.00000000E+00  0.00000000E+00  0.00000000E+00
  0.00000000E+00  0.00000000E+00  0.00000000E+00
  0.00000000E+00  0.00000000E+00  0.00000000E+00
  0.00000000E+00  0.00000000E+00  0.00000000E+00
  0.00000000E+00  0.00000000E+00  0.00000000E+00
  0.00000000E+00  0.00000000E+00  0.00000000E+00
  0.00000000E+00  0.00000000E+00  0.00000000E+00
  0.00000000E+00  0.00000000E+00  0.00000000E+00
  0.00000000E+00  0.00000000E+00  0.00000000E+00
  0.00000000E+00  0.00000000E+00  0.00000000E+00
  0.00000000E+00  0.00000000E+00  0.00000000E+00
  0.00000000E+00  0.00000000E+00  0.00000000E+00
  0.00000000E+00  0.00000000E+00  0.00000000E+00
  0.00000000E+00  0.00000000E+00  0.00000000E+00
  0.00000000E+00  0.00000000E+00  0.00000000E+00
  0.00000000E+00  0.00000000E+00  0.00000000E+00
  0.00000000E+00  0.00000000E+00  0.00000000E+00
  0.00000000E+00  0.00000000E+00  0.00000000E+00
  0.00000000E+00  0.00000000E+00  0.00000000E+00
  0.00000000E+00  0.00000000E+00  0.00000000E+00
  0.00000000E+00  0.00000000E+00  0.00000000E+00
  0.00000000E+00  0.00000000E+00  0.00000000E+00
  0.00000000E+00  0.00000000E+00  0.00000000E+00
  0.00000000E+00  0.00000000E+00  0.00000000E+00
  0.00000000E+00  0.00000000E+00  0.00000000E+00
  0.00000000E+00  0.00000000E+00  0.00000000E+00
  0.00000000E+00  0.00000000E+00  0.00000000E+00
  0.00000000E+00  0.00000000E+00  0.00000000E+00
  0.00000000E+00  0.00000000E+00  0.00000000E+00
  0.00000000E+00  0.00000000E+00  0.00000000E+00
  0.00000000E+00  0.00000000E+00  0.00000000E+00
  0.00000000E+00  0.00000000E+00  0.00000000E+00
  0.00000000E+00  0.00000000E+00  0.00000000E+00
  0.00000000E+00  0.00000000E+00  0.00000000E+00
  0.00000000E+00  0.00000000E+00  0.00000000E+00
  0.00000000E+00  0.00000000E+00  0.00000000E+00
  0.00000000E+00  0.00000000E+00  0.00000000E+00
  0.00000000E+00  0.00000000E+00  0.00000000E+00
  0.00000000E+00  0.00000000E+00  0.00000000E+00
  0.00000000E+00  0.00000000E+00  0.00000000E+00
  0.00000000E+00  0.00000000E+00  0.00000000E+00
  0.00000000E+00  0.00000000E+00  0.00000000E+00
  0.00000000E+00  0.00000000E+00  0.00000000E+00
  0.00000000E+00  0.00000000E+00  0.00000000E+00
  0.00000000E+00  0.00000000E+00  0.00000000E+00
  0.00000000E+00  0.00000000E+00  0.00000000E+00
  0.00000000E+00  0.00000000E+00  0.00000000E+00
  0.00000000E+00  0.00000000E+00  0.00000000E+00
  0.00000000E+00  0.00000000E+00  0.00000000E+00
  0.00000000E+00  0.00000000E+00  0.00000000E+00
  0.00000000E+00  0.00000000E+00  0.00000000E+00
  0.00000000E+00  0.00000000E+00  0.00000000E+00
  0.00000000E+00  0.00000000E+00  0.00000000E+00
  0.00000000E+00  0.00000000E+00  0.00000000E+00
  0.00000000E+00  0.00000000E+00  0.00000000E+00
  0.00000000E+00  0.00000000E+00  0.00000000E+00
  0.00000000E+00  0.00000000E+00  0.00000000E+00
  0.00000000E+00  0.00000000E+00  0.00000000E+00
  0.00000000E+00  0.00000000E+00  0.00000000E+00
  0.00000000E+00  0.00000000E+00  0.00000000E+00
  0.00000000E+00  0.00000000E+00  0.00000000E+00
  0.00000000E+00  0.00000000E+00  0.00000000E+00
  0.00000000E+00  0.00000000E+00  0.00000000E+00
  0.00000000E+00  0.00000000E+00  0.00000000E+00
  0.00000000E+00  0.00000000E+00  0.00000000E+00
  0.00000000E+00  0.00000000E+00  0.00000000E+00
  0.00000000E+00  0.00000000E+00  0.00000000E+00
  0.00000000E+00  0.00000000E+00  0.00000000E+00
  0.00000000E+00  0.00000000E+00  0.00000000E+00
  0.00000000E+00  0.00000000E+00  0.00000000E+00
  0.00000000E+00  0.00000000E+00  0.00000000E+00
  0.00000000E+00  0.00000000E+00  0.00000000E+00
  0.00000000E+00  0.00000000E+00  0.00000000E+00
  0.00000000E+00  0.00000000E+00  0.00000000E+00
  0.00000000E+00  0.00000000E+00  0.00000000E+00
  0.00000000E+00  0.00000000E+00  0.00000000E+00
  0.00000000E+00  0.00000000E+00  0.00000000E+00
  0.00000000E+00  0.00000000E+00  0.00000000E+00
  0.00000000E+00  0.00000000E+00  0.00000000E+00
  0.00000000E+00  0.00000000E+00  0.00000000E+00
  0.00000000E+00  0.00000000E+00  0.00000000E+00
  0.00000000E+00  0.00000000E+00  0.00000000E+00
  0.00000000E+00  0.00000000E+00  0.00000000E+00
  0.00000000E+00  0.00000000E+00  0.00000000E+00
  0.00000000E+00  0.00000000E+00  0.00000000E+00
  0.00000000E+00  0.00000000E+00  0.00000000E+00
  0.00000000E+00  0.00000000E+00  0.00000000E+00
  0.00000000E+00  0.00000000E+00  0.00000000E+00
  0.00000000E+00  0.00000000E+00  0.00000000E+00
  0.00000000E+00  0.00000000E+00  0.00000000E+00
  0.00000000E+00  0.00000000E+00  0.00000000E+00
  0.00000000E+00  0.00000000E+00  0.00000000E+00
  0.00000000E+00  0.00000000E+00  0.00000000E+00
  0.00000000E+00  0.00000000E+00  0.00000000E+00
  0.00000000E+00  0.00000000E+00  0.00000000E+00
  0.00000000E+00  0.00000000E+00  0.00000000E+00
  0.00000000E+00  0.00000000E+00  0.00000000E+00
  0.00000000E+00  0.00000000E+00  0.00000000E+00
  0.00000000E+00  0.00000000E+00  0.00000000E+00
  0.00000000E+00  0.00000000E+00  0.00000000E+00
  0.00000000E+00  0.00000000E+00  0.00000000E+00
  0.00000000E+00  0.00000000E+00  0.00000000E+00
  0.00000000E+00  0.00000000E+00  0.00000000E+00
  0.00000000E+00  0.00000000E+00  0.00000000E+00
  0.00000000E+00  0.00000000E+00  0.00000000E+00
  0.00000000E+00  0.00000000E+00  0.00000000E+00
  0.00000000E+00  0.00000000E+00  0.00000000E+00
  0.00000000E+00  0.00000000E+00  0.00000000E+00
  0.00000000E+00  0.00000000E+00  0.00000000E+00
  0.00000000E+00  0.00000000E+00  0.00000000E+00
  0.00000000E+00  0.00000000E+00  0.00000000E+00
  0.00000000E+00  0.00000000E+00  0.00000000E+00
  0.00000000E+00  0.00000000E+00  0.00000000E+00
  0.00000000E+00  0.00000000E+00  0.00000000E+00
  0.00000000E+00  0.00000000E+00  0.00000000E+00
  0.00000000E+00  0.00000000E+00  0.00000000E+00
  0.00000000E+00  0.00000000E+00  0.00000000E+00
  0.00000000E+00  0.00000000E+00  0.00000000E+00
  0.00000000E+00  0.00000000E+00  0.00000000E+00
  0.00000000E+00  0.00000000E+00  0.00000000E+00
  0.00000000E+00  0.00000000E+00  0.00000000E+00
  0.00000000E+00  0.00000000E+00  0.00000000E+00
  0.00000000E+00  0.00000000E+00  0.00000000E+00
  0.00000000E+00  0.00000000E+00  0.00000000E+00
  0.00000000E+00  0.00000000E+00  0.00000000E+00
  0.00000000E+00  0.00000000E+00  0.00000000E+00
  0.00000000E+00  0.00000000E+00  0.00000000E+00
  0.00000000E+00  0.00000000E+00  0.00000000E+00
  0.00000000E+00  0.00000000E+00  0.00000000E+00
  0.00000000E+00  0.00000000E+00  0.00000000E+00
  0.00000000E+00  0.00000000E+00  0.00000000E+00
  0.00000000E+00  0.00000000E+00  0.00000000E+00
