Na2 Fe48 S8 O48                         
   1.00000000000000     
     8.7025565439663310    0.0000000000000000    0.0000000000000005
    -0.0000000000000005    8.7025565439663310    0.0000000000000005
     0.0000000000000000    0.0000000000000000   26.1076696318989931
   Na   Fe   S    O 
     2    48     8    48
Selective dynamics
Direct
  0.8723061803168992  0.4012611329960455  0.9189617804925535   T   T   T
  0.2771616087517824  0.2323321338429706  0.9287281939503190   T   T   T
  0.0000000000000000  0.0000000000000000  0.3750000000000000   F   F   F
  0.0000000000000000  0.5000000000000000  0.3750000000000000   F   F   F
  0.5000000000000000  0.0000000000000000  0.3750000000000000   F   F   F
  0.5000000000000000  0.5000000000000000  0.3750000000000000   F   F   F
  0.2500000000000000  0.2500000000000000  0.3750000000000000   F   F   F
  0.2500000000000000  0.7500000000000000  0.3750000000000000   F   F   F
  0.7500000000000000  0.2500000000000000  0.3750000000000000   F   F   F
  0.7500000000000000  0.7500000000000000  0.3750000000000000   F   F   F
  0.0000000000000000  0.2500000000000000  0.2916666666666643   F   F   F
  0.0000000000000000  0.7500000000000000  0.2916666666666643   F   F   F
  0.5000000000000000  0.2500000000000000  0.2916666666666643   F   F   F
  0.5000000000000000  0.7500000000000000  0.2916666666666643   F   F   F
  0.2500000000000000  0.0000000000000000  0.2916666666666643   F   F   F
  0.2500000000000000  0.5000000000000000  0.2916666666666643   F   F   F
  0.7500000000000000  0.0000000000000000  0.2916666666666643   F   F   F
  0.7500000000000000  0.5000000000000000  0.2916666666666643   F   F   F
  0.0000000000000000  0.0000000000000000  0.5416666666666643   F   F   F
  0.0000000000000000  0.5000000000000000  0.5416666666666643   F   F   F
  0.5000000000000000  0.0000000000000000  0.5416666666666643   F   F   F
  0.5000000000000000  0.5000000000000000  0.5416666666666643   F   F   F
  0.2500000000000000  0.2500000000000000  0.5416666666666643   F   F   F
  0.2500000000000000  0.7500000000000000  0.5416666666666643   F   F   F
  0.7500000000000000  0.2500000000000000  0.5416666666666643   F   F   F
  0.7500000000000000  0.7500000000000000  0.5416666666666643   F   F   F
  0.0000000000000000  0.2500000000000000  0.4583333333333357   F   F   F
  0.0000000000000000  0.7500000000000000  0.4583333333333357   F   F   F
  0.5000000000000000  0.2500000000000000  0.4583333333333357   F   F   F
  0.5000000000000000  0.7500000000000000  0.4583333333333357   F   F   F
  0.2500000000000000  0.0000000000000000  0.4583333333333357   F   F   F
  0.2500000000000000  0.5000000000000000  0.4583333333333357   F   F   F
  0.7500000000000000  0.0000000000000000  0.4583333333333357   F   F   F
  0.7500000000000000  0.5000000000000000  0.4583333333333357   F   F   F
  0.0222103656015044  0.0825945676820892  0.7395224311261667   T   T   T
 -0.0747426029540320  0.4967843288372523  0.7411353126205461   T   T   T
  0.4372401840556673  0.0109577217332733  0.7011078897550186   T   T   T
  0.5159495584785835  0.5729629486310766  0.7010879143404760   T   T   T
  0.2584295192915012  0.3465793531313984  0.7406947543385691   T   T   T
  0.1815110823295662  0.7457473719128044  0.7026659904646441   T   T   T
  0.6670036953599884  0.2367369102681346  0.7069404721710723   T   T   T
  0.7634593275361160  0.8314908019076943  0.7064792518992934   T   T   T
  0.0080640120001384  0.2496068481113528  0.6409732415252617   T   T   T
 -0.0045972133421644  0.7431145535076119  0.6318385049150562   T   T   T
  0.4795009274438841  0.2359110936813547  0.6360173038456918   T   T   T
  0.5117455758211780  0.7535953133648333  0.6301032599043355   T   T   T
  0.2335540107692584  0.0072228114792667  0.6327340617021406   T   T   T
  0.2399625587451502  0.5135736220514951  0.6277444903969452   T   T   T
  0.7607878011144046  0.0116199916173431  0.6322220589883567   T   T   T
  0.7429506216289556  0.4978355707972413  0.6314602293478152   T   T   T
  0.0492408447215432  0.9847482059859444  0.8740921734832303   T   T   T
  0.2184620933863163  0.3788327733867471  0.8258265308911660   T   T   T
  0.2173561687777536  0.4956351582726405  0.9920546101269749   T   T   T
  0.5618591305728757  0.3737905369411792  0.9535094735585221   T   T   T
  0.8964775678754453  0.0187414652356008  0.8151936891643332   T   T   T
 -0.0173288472261892  0.0977265724979779  0.9385595351595319   T   T   T
  0.4320870381015681  0.5575182108737580  0.9746924184833240   T   T   T
  0.0053321440641636  0.4900120771879974  0.8231692104585456   T   T   T
  0.2500000000000000  0.0000000000000000  0.3750000000000000   F   F   F
  0.2500000000000000  0.5000000000000000  0.3750000000000000   F   F   F
  0.7500000000000000  0.0000000000000000  0.3750000000000000   F   F   F
  0.7500000000000000  0.5000000000000000  0.3750000000000000   F   F   F
  0.0000000000000000  0.2500000000000000  0.3750000000000000   F   F   F
  0.0000000000000000  0.7500000000000000  0.3750000000000000   F   F   F
  0.5000000000000000  0.2500000000000000  0.3750000000000000   F   F   F
  0.5000000000000000  0.7500000000000000  0.3750000000000000   F   F   F
  0.2500000000000000  0.2500000000000000  0.2916666666666643   F   F   F
  0.2500000000000000  0.7500000000000000  0.2916666666666643   F   F   F
  0.7500000000000000  0.2500000000000000  0.2916666666666643   F   F   F
  0.7500000000000000  0.7500000000000000  0.2916666666666643   F   F   F
  0.0000000000000000  0.0000000000000000  0.2916666666666643   F   F   F
  0.0000000000000000  0.5000000000000000  0.2916666666666643   F   F   F
  0.5000000000000000  0.0000000000000000  0.2916666666666643   F   F   F
  0.5000000000000000  0.5000000000000000  0.2916666666666643   F   F   F
  0.2500000000000000  0.0000000000000000  0.5416666666666643   F   F   F
  0.2500000000000000  0.5000000000000000  0.5416666666666643   F   F   F
  0.7500000000000000  0.0000000000000000  0.5416666666666643   F   F   F
  0.7500000000000000  0.5000000000000000  0.5416666666666643   F   F   F
  0.0000000000000000  0.2500000000000000  0.5416666666666643   F   F   F
  0.0000000000000000  0.7500000000000000  0.5416666666666643   F   F   F
  0.5000000000000000  0.2500000000000000  0.5416666666666643   F   F   F
  0.5000000000000000  0.7500000000000000  0.5416666666666643   F   F   F
  0.2500000000000000  0.2500000000000000  0.4583333333333357   F   F   F
  0.2500000000000000  0.7500000000000000  0.4583333333333357   F   F   F
  0.7500000000000000  0.2500000000000000  0.4583333333333357   F   F   F
  0.7500000000000000  0.7500000000000000  0.4583333333333357   F   F   F
  0.0000000000000000  0.0000000000000000  0.4583333333333357   F   F   F
  0.0000000000000000  0.5000000000000000  0.4583333333333357   F   F   F
  0.5000000000000000  0.0000000000000000  0.4583333333333357   F   F   F
  0.5000000000000000  0.5000000000000000  0.4583333333333357   F   F   F
  0.2074056059935012 -0.0297810921848003  0.7149157624909300   T   T   T
  0.2879654577074657  0.5438917836180845  0.7081116015913246   T   T   T
  0.7993952293907338  0.0558003662434009  0.7119501137821627   T   T   T
  0.7122160316731257  0.4616626675573984  0.7150988012140793   T   T   T
  0.0510306198707300  0.2985490547678904  0.7163930029361762   T   T   T
 -0.0426505218406933  0.7099994011242211  0.7122692354114820   T   T   T
  0.4378591090513035  0.2329748534817166  0.7215407600513976   T   T   T
  0.5372663852259698  0.8023752749433525  0.7118013843110659   T   T   T
  0.2410842301512639  0.2473851205772432  0.6219620584898879   T   T   T
  0.2638788756153007  0.7630041420436604  0.6237114532893322   T   T   T
  0.7640798558391648  0.2586748680235239  0.6263967748128970   T   T   T
  0.7508848941508892  0.7407883642377013  0.6226094008566996   T   T   T
 -0.0045929162045724 -0.0037439209134858  0.6203242163526109   T   T   T
  0.0039283300175204  0.5004028950163671  0.6209800080995054   T   T   T
  0.5157752131567930  0.0021385596924185  0.6216118530020167   T   T   T
  0.4903340425514276  0.4851304920608900  0.6243477032766708   T   T   T
 
  0.00000000E+00  0.00000000E+00  0.00000000E+00
  0.00000000E+00  0.00000000E+00  0.00000000E+00
  0.00000000E+00  0.00000000E+00  0.00000000E+00
  0.00000000E+00  0.00000000E+00  0.00000000E+00
  0.00000000E+00  0.00000000E+00  0.00000000E+00
  0.00000000E+00  0.00000000E+00  0.00000000E+00
  0.00000000E+00  0.00000000E+00  0.00000000E+00
  0.00000000E+00  0.00000000E+00  0.00000000E+00
  0.00000000E+00  0.00000000E+00  0.00000000E+00
  0.00000000E+00  0.00000000E+00  0.00000000E+00
  0.00000000E+00  0.00000000E+00  0.00000000E+00
  0.00000000E+00  0.00000000E+00  0.00000000E+00
  0.00000000E+00  0.00000000E+00  0.00000000E+00
  0.00000000E+00  0.00000000E+00  0.00000000E+00
  0.00000000E+00  0.00000000E+00  0.00000000E+00
  0.00000000E+00  0.00000000E+00  0.00000000E+00
  0.00000000E+00  0.00000000E+00  0.00000000E+00
  0.00000000E+00  0.00000000E+00  0.00000000E+00
  0.00000000E+00  0.00000000E+00  0.00000000E+00
  0.00000000E+00  0.00000000E+00  0.00000000E+00
  0.00000000E+00  0.00000000E+00  0.00000000E+00
  0.00000000E+00  0.00000000E+00  0.00000000E+00
  0.00000000E+00  0.00000000E+00  0.00000000E+00
  0.00000000E+00  0.00000000E+00  0.00000000E+00
  0.00000000E+00  0.00000000E+00  0.00000000E+00
  0.00000000E+00  0.00000000E+00  0.00000000E+00
  0.00000000E+00  0.00000000E+00  0.00000000E+00
  0.00000000E+00  0.00000000E+00  0.00000000E+00
  0.00000000E+00  0.00000000E+00  0.00000000E+00
  0.00000000E+00  0.00000000E+00  0.00000000E+00
  0.00000000E+00  0.00000000E+00  0.00000000E+00
  0.00000000E+00  0.00000000E+00  0.00000000E+00
  0.00000000E+00  0.00000000E+00  0.00000000E+00
  0.00000000E+00  0.00000000E+00  0.00000000E+00
  0.00000000E+00  0.00000000E+00  0.00000000E+00
  0.00000000E+00  0.00000000E+00  0.00000000E+00
  0.00000000E+00  0.00000000E+00  0.00000000E+00
  0.00000000E+00  0.00000000E+00  0.00000000E+00
  0.00000000E+00  0.00000000E+00  0.00000000E+00
  0.00000000E+00  0.00000000E+00  0.00000000E+00
  0.00000000E+00  0.00000000E+00  0.00000000E+00
  0.00000000E+00  0.00000000E+00  0.00000000E+00
  0.00000000E+00  0.00000000E+00  0.00000000E+00
  0.00000000E+00  0.00000000E+00  0.00000000E+00
  0.00000000E+00  0.00000000E+00  0.00000000E+00
  0.00000000E+00  0.00000000E+00  0.00000000E+00
  0.00000000E+00  0.00000000E+00  0.00000000E+00
  0.00000000E+00  0.00000000E+00  0.00000000E+00
  0.00000000E+00  0.00000000E+00  0.00000000E+00
  0.00000000E+00  0.00000000E+00  0.00000000E+00
  0.00000000E+00  0.00000000E+00  0.00000000E+00
  0.00000000E+00  0.00000000E+00  0.00000000E+00
  0.00000000E+00  0.00000000E+00  0.00000000E+00
  0.00000000E+00  0.00000000E+00  0.00000000E+00
  0.00000000E+00  0.00000000E+00  0.00000000E+00
  0.00000000E+00  0.00000000E+00  0.00000000E+00
  0.00000000E+00  0.00000000E+00  0.00000000E+00
  0.00000000E+00  0.00000000E+00  0.00000000E+00
  0.00000000E+00  0.00000000E+00  0.00000000E+00
  0.00000000E+00  0.00000000E+00  0.00000000E+00
  0.00000000E+00  0.00000000E+00  0.00000000E+00
  0.00000000E+00  0.00000000E+00  0.00000000E+00
  0.00000000E+00  0.00000000E+00  0.00000000E+00
  0.00000000E+00  0.00000000E+00  0.00000000E+00
  0.00000000E+00  0.00000000E+00  0.00000000E+00
  0.00000000E+00  0.00000000E+00  0.00000000E+00
  0.00000000E+00  0.00000000E+00  0.00000000E+00
  0.00000000E+00  0.00000000E+00  0.00000000E+00
  0.00000000E+00  0.00000000E+00  0.00000000E+00
  0.00000000E+00  0.00000000E+00  0.00000000E+00
  0.00000000E+00  0.00000000E+00  0.00000000E+00
  0.00000000E+00  0.00000000E+00  0.00000000E+00
  0.00000000E+00  0.00000000E+00  0.00000000E+00
  0.00000000E+00  0.00000000E+00  0.00000000E+00
  0.00000000E+00  0.00000000E+00  0.00000000E+00
  0.00000000E+00  0.00000000E+00  0.00000000E+00
  0.00000000E+00  0.00000000E+00  0.00000000E+00
  0.00000000E+00  0.00000000E+00  0.00000000E+00
  0.00000000E+00  0.00000000E+00  0.00000000E+00
  0.00000000E+00  0.00000000E+00  0.00000000E+00
  0.00000000E+00  0.00000000E+00  0.00000000E+00
  0.00000000E+00  0.00000000E+00  0.00000000E+00
  0.00000000E+00  0.00000000E+00  0.00000000E+00
  0.00000000E+00  0.00000000E+00  0.00000000E+00
  0.00000000E+00  0.00000000E+00  0.00000000E+00
  0.00000000E+00  0.00000000E+00  0.00000000E+00
  0.00000000E+00  0.00000000E+00  0.00000000E+00
  0.00000000E+00  0.00000000E+00  0.00000000E+00
  0.00000000E+00  0.00000000E+00  0.00000000E+00
  0.00000000E+00  0.00000000E+00  0.00000000E+00
  0.00000000E+00  0.00000000E+00  0.00000000E+00
  0.00000000E+00  0.00000000E+00  0.00000000E+00
  0.00000000E+00  0.00000000E+00  0.00000000E+00
  0.00000000E+00  0.00000000E+00  0.00000000E+00
  0.00000000E+00  0.00000000E+00  0.00000000E+00
  0.00000000E+00  0.00000000E+00  0.00000000E+00
  0.00000000E+00  0.00000000E+00  0.00000000E+00
  0.00000000E+00  0.00000000E+00  0.00000000E+00
  0.00000000E+00  0.00000000E+00  0.00000000E+00
  0.00000000E+00  0.00000000E+00  0.00000000E+00
  0.00000000E+00  0.00000000E+00  0.00000000E+00
  0.00000000E+00  0.00000000E+00  0.00000000E+00
  0.00000000E+00  0.00000000E+00  0.00000000E+00
  0.00000000E+00  0.00000000E+00  0.00000000E+00
  0.00000000E+00  0.00000000E+00  0.00000000E+00
  0.00000000E+00  0.00000000E+00  0.00000000E+00
