Na2 Mn72 Ni24 S2                        
   1.00000000000000     
    10.0435731758686053    0.0000000000000000    0.0000000000000006
     5.0217865879343071    8.6979895150701676    0.0000000000000006
     0.0000000000000000    0.0000000000000000   24.6016294751824205
   Na   Mn   Ni   S 
     2    72    24     2
Selective dynamics
Direct
  0.3708016954138040  0.2809569453524203  0.8256015411637529   T   T   T
  0.3695463373589294  0.8293326403823040  0.8210630738373577   T   T   T
  0.3333333333333357  0.0833333333333357  0.2916666666666643   F   F   F
  0.3333333333333357  0.5833333333333357  0.2916666666666643   F   F   F
  0.8333333333333357  0.0833333333333357  0.2916666666666643   F   F   F
  0.8333333333333357  0.5833333333333357  0.2916666666666643   F   F   F
  0.0000000000000000  0.2500000000000000  0.3750000000000000   F   F   F
  0.0000000000000000  0.7500000000000000  0.3750000000000000   F   F   F
  0.5000000000000000  0.2500000000000000  0.3750000000000000   F   F   F
  0.5000000000000000  0.7500000000000000  0.3750000000000000   F   F   F
  0.1666666666666643  0.4166666666666643  0.4583333333333357   F   F   F
  0.1666666666666643  0.9166666666666643  0.4583333333333357   F   F   F
  0.6666666666666643  0.4166666666666643  0.4583333333333357   F   F   F
  0.6666666666666643  0.9166666666666643  0.4583333333333357   F   F   F
  0.0833333333333357  0.0833333333333357  0.2916666666666643   F   F   F
  0.0833333333333357  0.5833333333333357  0.2916666666666643   F   F   F
  0.5833333333333357  0.0833333333333357  0.2916666666666643   F   F   F
  0.5833333333333357  0.5833333333333357  0.2916666666666643   F   F   F
  0.2500000000000000  0.2500000000000000  0.3750000000000000   F   F   F
  0.2500000000000000  0.7500000000000000  0.3750000000000000   F   F   F
  0.7500000000000000  0.2500000000000000  0.3750000000000000   F   F   F
  0.7500000000000000  0.7500000000000000  0.3750000000000000   F   F   F
  0.4166666666666643  0.4166666666666643  0.4583333333333357   F   F   F
  0.4166666666666643  0.9166666666666643  0.4583333333333357   F   F   F
  0.9166666666666643  0.4166666666666643  0.4583333333333357   F   F   F
  0.9166666666666643  0.9166666666666643  0.4583333333333357   F   F   F
  0.0833333333333357  0.3333333333333357  0.2916666666666643   F   F   F
  0.0833333333333357  0.8333333333333357  0.2916666666666643   F   F   F
  0.5833333333333357  0.3333333333333357  0.2916666666666643   F   F   F
  0.5833333333333357  0.8333333333333357  0.2916666666666643   F   F   F
  0.2500000000000000  0.5000000000000000  0.3750000000000000   F   F   F
  0.2500000000000000  0.0000000000000000  0.3750000000000000   F   F   F
  0.7500000000000000  0.5000000000000000  0.3750000000000000   F   F   F
  0.7500000000000000  0.0000000000000000  0.3750000000000000   F   F   F
  0.4166666666666643  0.1666666666666643  0.4583333333333357   F   F   F
  0.4166666666666643  0.6666666666666643  0.4583333333333357   F   F   F
  0.9166666666666643  0.1666666666666643  0.4583333333333357   F   F   F
  0.9166666666666643  0.6666666666666643  0.4583333333333357   F   F   F
  0.3333333333333357  0.0833333333333357  0.5416666666666643   F   F   F
  0.3333333333333357  0.5833333333333357  0.5416666666666643   F   F   F
  0.8333333333333357  0.0833333333333357  0.5416666666666643   F   F   F
  0.8333333333333357  0.5833333333333357  0.5416666666666643   F   F   F
  0.0056489497205403  0.2461322080672019  0.6234312464978464   T   T   T
  0.0035545378676101  0.7483306173726384  0.6243899731233500   T   T   T
  0.5027379390098152  0.2448965029666401  0.6261462305972992   T   T   T
  0.5024419483998240  0.7528902789876214  0.6257188545156276   T   T   T
  0.1690147413241425  0.4159445953297546  0.7057221361392794   T   T   T
  0.1706837057931241  0.9138679682831353  0.7053001620228818   T   T   T
  0.6762616611929609  0.4113889808728798  0.7050295691771381   T   T   T
  0.6985578563164345  0.9008454188468904  0.7074846093552700   T   T   T
  0.0833333333333357  0.0833333333333357  0.5416666666666643   F   F   F
  0.0833333333333357  0.5833333333333357  0.5416666666666643   F   F   F
  0.5833333333333357  0.0833333333333357  0.5416666666666643   F   F   F
  0.5833333333333357  0.5833333333333357  0.5416666666666643   F   F   F
  0.2419128849747304  0.2519810614546080  0.6271389807937000   T   T   T
  0.2417855975312160  0.7555741576864673  0.6260469253713987   T   T   T
  0.7434537606787871  0.2563109426563795  0.6256919951758187   T   T   T
  0.7480867727830915  0.7479908722618609  0.6238373814355737   T   T   T
  0.4194805907267035  0.4125852824662291  0.7120197484584944   T   T   T
  0.4115963072339002  0.9216263840297851  0.7144124214204672   T   T   T
  0.9129790035346418  0.4226590589527041  0.7089964128177690   T   T   T
  0.9235631255979962  0.9081679299496742  0.7023216191757933   T   T   T
  0.0833333333333357  0.3333333333333357  0.5416666666666643   F   F   F
  0.0833333333333357  0.8333333333333357  0.5416666666666643   F   F   F
  0.5833333333333357  0.3333333333333357  0.5416666666666643   F   F   F
  0.5833333333333357  0.8333333333333357  0.5416666666666643   F   F   F
  0.2420097760148378  0.5030074142314798  0.6262317069226088   T   T   T
  0.2415419247566354  0.0064569308347026  0.6267679100299905   T   T   T
  0.7431015622330298  0.5010462342269772  0.6254883450043757   T   T   T
  0.7482907349241804  0.0050478072866256  0.6239371067348650   T   T   T
  0.4100196238233368  0.1681549247049355  0.7156221635486321   T   T   T
  0.4186196724155771  0.6702845623137109  0.7095497654581512   T   T   T
  0.9129183127064540  0.1635871912595856  0.7097144572633372   T   T   T
  0.9232467854162240  0.6684666197153496  0.7023622721659805   T   T   T
  0.0000000000000000  0.5000000000000000  0.3750000000000000   F   F   F
  0.0000000000000000  0.0000000000000000  0.3750000000000000   F   F   F
  0.5000000000000000  0.5000000000000000  0.3750000000000000   F   F   F
  0.5000000000000000  0.0000000000000000  0.3750000000000000   F   F   F
  0.1666666666666643  0.1666666666666643  0.4583333333333357   F   F   F
  0.1666666666666643  0.6666666666666643  0.4583333333333357   F   F   F
  0.6666666666666643  0.1666666666666643  0.4583333333333357   F   F   F
  0.6666666666666643  0.6666666666666643  0.4583333333333357   F   F   F
  0.3333333333333357  0.3333333333333357  0.2916666666666643   F   F   F
  0.3333333333333357  0.8333333333333357  0.2916666666666643   F   F   F
  0.8333333333333357  0.3333333333333357  0.2916666666666643   F   F   F
  0.8333333333333357  0.8333333333333357  0.2916666666666643   F   F   F
 -0.0010783400295674  0.4984207146122031  0.6224808428776106   T   T   T
 -0.0017728123579373  0.0031223806557566  0.6225464683873976   T   T   T
  0.4980651339965290  0.5004651844225113  0.6231780302332363   T   T   T
  0.4988812010825511  0.0005812679146042  0.6256162198731706   T   T   T
  0.1563628151836357  0.1712355158158528  0.7076759528063284   T   T   T
  0.1709073296245827  0.6647567911803343  0.7090189247597676   T   T   T
  0.6688620716278351  0.1651086764615419  0.7083405676311150   T   T   T
  0.6689430846920871  0.6662885964478000  0.7082867211419795   T   T   T
  0.3333333333333357  0.3333333333333357  0.5416666666666643   F   F   F
  0.3333333333333357  0.8333333333333357  0.5416666666666643   F   F   F
  0.8333333333333357  0.3333333333333357  0.5416666666666643   F   F   F
  0.8333333333333357  0.8333333333333357  0.5416666666666643   F   F   F
  0.5617580427368559 -0.0325242643805626  0.7804557711050929   T   T   T
  0.1730541869866567  0.1627253329161687  0.7927054009163228   T   T   T
 
  0.00000000E+00  0.00000000E+00  0.00000000E+00
  0.00000000E+00  0.00000000E+00  0.00000000E+00
  0.00000000E+00  0.00000000E+00  0.00000000E+00
  0.00000000E+00  0.00000000E+00  0.00000000E+00
  0.00000000E+00  0.00000000E+00  0.00000000E+00
  0.00000000E+00  0.00000000E+00  0.00000000E+00
  0.00000000E+00  0.00000000E+00  0.00000000E+00
  0.00000000E+00  0.00000000E+00  0.00000000E+00
  0.00000000E+00  0.00000000E+00  0.00000000E+00
  0.00000000E+00  0.00000000E+00  0.00000000E+00
  0.00000000E+00  0.00000000E+00  0.00000000E+00
  0.00000000E+00  0.00000000E+00  0.00000000E+00
  0.00000000E+00  0.00000000E+00  0.00000000E+00
  0.00000000E+00  0.00000000E+00  0.00000000E+00
  0.00000000E+00  0.00000000E+00  0.00000000E+00
  0.00000000E+00  0.00000000E+00  0.00000000E+00
  0.00000000E+00  0.00000000E+00  0.00000000E+00
  0.00000000E+00  0.00000000E+00  0.00000000E+00
  0.00000000E+00  0.00000000E+00  0.00000000E+00
  0.00000000E+00  0.00000000E+00  0.00000000E+00
  0.00000000E+00  0.00000000E+00  0.00000000E+00
  0.00000000E+00  0.00000000E+00  0.00000000E+00
  0.00000000E+00  0.00000000E+00  0.00000000E+00
  0.00000000E+00  0.00000000E+00  0.00000000E+00
  0.00000000E+00  0.00000000E+00  0.00000000E+00
  0.00000000E+00  0.00000000E+00  0.00000000E+00
  0.00000000E+00  0.00000000E+00  0.00000000E+00
  0.00000000E+00  0.00000000E+00  0.00000000E+00
  0.00000000E+00  0.00000000E+00  0.00000000E+00
  0.00000000E+00  0.00000000E+00  0.00000000E+00
  0.00000000E+00  0.00000000E+00  0.00000000E+00
  0.00000000E+00  0.00000000E+00  0.00000000E+00
  0.00000000E+00  0.00000000E+00  0.00000000E+00
  0.00000000E+00  0.00000000E+00  0.00000000E+00
  0.00000000E+00  0.00000000E+00  0.00000000E+00
  0.00000000E+00  0.00000000E+00  0.00000000E+00
  0.00000000E+00  0.00000000E+00  0.00000000E+00
  0.00000000E+00  0.00000000E+00  0.00000000E+00
  0.00000000E+00  0.00000000E+00  0.00000000E+00
  0.00000000E+00  0.00000000E+00  0.00000000E+00
  0.00000000E+00  0.00000000E+00  0.00000000E+00
  0.00000000E+00  0.00000000E+00  0.00000000E+00
  0.00000000E+00  0.00000000E+00  0.00000000E+00
  0.00000000E+00  0.00000000E+00  0.00000000E+00
  0.00000000E+00  0.00000000E+00  0.00000000E+00
  0.00000000E+00  0.00000000E+00  0.00000000E+00
  0.00000000E+00  0.00000000E+00  0.00000000E+00
  0.00000000E+00  0.00000000E+00  0.00000000E+00
  0.00000000E+00  0.00000000E+00  0.00000000E+00
  0.00000000E+00  0.00000000E+00  0.00000000E+00
  0.00000000E+00  0.00000000E+00  0.00000000E+00
  0.00000000E+00  0.00000000E+00  0.00000000E+00
  0.00000000E+00  0.00000000E+00  0.00000000E+00
  0.00000000E+00  0.00000000E+00  0.00000000E+00
  0.00000000E+00  0.00000000E+00  0.00000000E+00
  0.00000000E+00  0.00000000E+00  0.00000000E+00
  0.00000000E+00  0.00000000E+00  0.00000000E+00
  0.00000000E+00  0.00000000E+00  0.00000000E+00
  0.00000000E+00  0.00000000E+00  0.00000000E+00
  0.00000000E+00  0.00000000E+00  0.00000000E+00
  0.00000000E+00  0.00000000E+00  0.00000000E+00
  0.00000000E+00  0.00000000E+00  0.00000000E+00
  0.00000000E+00  0.00000000E+00  0.00000000E+00
  0.00000000E+00  0.00000000E+00  0.00000000E+00
  0.00000000E+00  0.00000000E+00  0.00000000E+00
  0.00000000E+00  0.00000000E+00  0.00000000E+00
  0.00000000E+00  0.00000000E+00  0.00000000E+00
  0.00000000E+00  0.00000000E+00  0.00000000E+00
  0.00000000E+00  0.00000000E+00  0.00000000E+00
  0.00000000E+00  0.00000000E+00  0.00000000E+00
  0.00000000E+00  0.00000000E+00  0.00000000E+00
  0.00000000E+00  0.00000000E+00  0.00000000E+00
  0.00000000E+00  0.00000000E+00  0.00000000E+00
  0.00000000E+00  0.00000000E+00  0.00000000E+00
  0.00000000E+00  0.00000000E+00  0.00000000E+00
  0.00000000E+00  0.00000000E+00  0.00000000E+00
  0.00000000E+00  0.00000000E+00  0.00000000E+00
  0.00000000E+00  0.00000000E+00  0.00000000E+00
  0.00000000E+00  0.00000000E+00  0.00000000E+00
  0.00000000E+00  0.00000000E+00  0.00000000E+00
  0.00000000E+00  0.00000000E+00  0.00000000E+00
  0.00000000E+00  0.00000000E+00  0.00000000E+00
  0.00000000E+00  0.00000000E+00  0.00000000E+00
  0.00000000E+00  0.00000000E+00  0.00000000E+00
  0.00000000E+00  0.00000000E+00  0.00000000E+00
  0.00000000E+00  0.00000000E+00  0.00000000E+00
  0.00000000E+00  0.00000000E+00  0.00000000E+00
  0.00000000E+00  0.00000000E+00  0.00000000E+00
  0.00000000E+00  0.00000000E+00  0.00000000E+00
  0.00000000E+00  0.00000000E+00  0.00000000E+00
  0.00000000E+00  0.00000000E+00  0.00000000E+00
  0.00000000E+00  0.00000000E+00  0.00000000E+00
  0.00000000E+00  0.00000000E+00  0.00000000E+00
  0.00000000E+00  0.00000000E+00  0.00000000E+00
  0.00000000E+00  0.00000000E+00  0.00000000E+00
  0.00000000E+00  0.00000000E+00  0.00000000E+00
  0.00000000E+00  0.00000000E+00  0.00000000E+00
  0.00000000E+00  0.00000000E+00  0.00000000E+00
  0.00000000E+00  0.00000000E+00  0.00000000E+00
  0.00000000E+00  0.00000000E+00  0.00000000E+00
