K2 V8 Zn1 O19                           
    1.000000000000000     
    11.8654779999999995    0.0000000000000000   -0.0247010000000000
     0.0000000000000000    3.7326980000000001    0.0000000000000000
     0.0000000000000000    0.0000000000000000    9.3174469999999996
   Zn   K    V    O 
     1     2     8    19
Direct
  0.2331563371024658  0.0000000000000000  0.5583683584969241
  0.5549896138450918  0.0000000000000000  0.4656302095389253
  0.9131403023854564  0.5000000000000000  0.5599510883764037
  0.0694966693396963  0.0000000000000000  0.8187305045877862
  0.9412893782454796  0.0000000000000000  0.1830256771140539
  0.5759666969784724  0.5000000000000000  0.8373618149316285
  0.4305342008637027  0.5000000000000000  0.1479343767421722
  0.7688693868637293  0.0000000000000000  0.9088332935666349
  0.2317985196176649  0.0000000000000000  0.1637510618530270
  0.2720461975744369  0.5000000000000000  0.8404797076083760
  0.7316852123789993  0.5000000000000000  0.1728391584950838
  0.6119665707267319  0.0000000000000000  0.8674599160399132
  0.3947271138027708  0.0000000000000000  0.1239713148397357
  0.0962739205956771  0.5000000000000000  0.8618778906918894
  0.9012120267291859  0.5000000000000000  0.1532969967076216
  0.8987604573494647  0.0000000000000000  0.8234021302996107
  0.0708247256937179  0.0000000000000000  0.1012940324600454
  0.4174059599309415  0.5000000000000000  0.8886927915551951
  0.5743311966488998  0.5000000000000000  0.1017133220720347
  0.2318184095015683  0.0000000000000000  0.8619935328104801
  0.7705615198500920  0.0000000000000000  0.1192613647800808
  0.7380914999872114  0.5000000000000000  0.9199052881520410
  0.2594054250317097  0.5000000000000000  0.1015817475122925
  0.0723987871933059  0.0000000000000000  0.6355116210847466
  0.9567006847097842  0.0000000000000000  0.3566190920920160
  0.5815277622264572  0.5000000000000000  0.6596993609064805
  0.4354998141302650  0.5000000000000000  0.3235988070869263
  0.2222946760671000  0.0000000000000000  0.3432915463636796
  0.2734345865663097  0.5000000000000000  0.6376787962098350
  0.7122439194921845  0.5000000000000000  0.3484497525799040
 
  0.00000000E+00  0.00000000E+00  0.00000000E+00
  0.00000000E+00  0.00000000E+00  0.00000000E+00
  0.00000000E+00  0.00000000E+00  0.00000000E+00
  0.00000000E+00  0.00000000E+00  0.00000000E+00
  0.00000000E+00  0.00000000E+00  0.00000000E+00
  0.00000000E+00  0.00000000E+00  0.00000000E+00
  0.00000000E+00  0.00000000E+00  0.00000000E+00
  0.00000000E+00  0.00000000E+00  0.00000000E+00
  0.00000000E+00  0.00000000E+00  0.00000000E+00
  0.00000000E+00  0.00000000E+00  0.00000000E+00
  0.00000000E+00  0.00000000E+00  0.00000000E+00
  0.00000000E+00  0.00000000E+00  0.00000000E+00
  0.00000000E+00  0.00000000E+00  0.00000000E+00
  0.00000000E+00  0.00000000E+00  0.00000000E+00
  0.00000000E+00  0.00000000E+00  0.00000000E+00
  0.00000000E+00  0.00000000E+00  0.00000000E+00
  0.00000000E+00  0.00000000E+00  0.00000000E+00
  0.00000000E+00  0.00000000E+00  0.00000000E+00
  0.00000000E+00  0.00000000E+00  0.00000000E+00
  0.00000000E+00  0.00000000E+00  0.00000000E+00
  0.00000000E+00  0.00000000E+00  0.00000000E+00
  0.00000000E+00  0.00000000E+00  0.00000000E+00
  0.00000000E+00  0.00000000E+00  0.00000000E+00
  0.00000000E+00  0.00000000E+00  0.00000000E+00
  0.00000000E+00  0.00000000E+00  0.00000000E+00
  0.00000000E+00  0.00000000E+00  0.00000000E+00
  0.00000000E+00  0.00000000E+00  0.00000000E+00
  0.00000000E+00  0.00000000E+00  0.00000000E+00
  0.00000000E+00  0.00000000E+00  0.00000000E+00
  0.00000000E+00  0.00000000E+00  0.00000000E+00
