Na2 C128 S2                             
   1.00000000000000     
     9.9127764890764176    0.0000000000000000    0.0000000000000006
    -4.9563882445382124    8.5847162615772934    0.0000000000000006
     0.0000000000000000    0.0000000000000000   34.1618118281680125
   Na   C    S 
     2   128     2
Selective dynamics
Direct
  0.1390060479993028  0.2433763485169643  0.7709765604952911   T   T   T
  0.7171925232377526  0.8491298103896928  0.7765370212587427   T   T   T
  0.0000000000000000  0.0000000000000000  0.3125000000000000   F   F   F
  0.0000000000000000  0.2500000000000000  0.3125000000000000   F   F   F
  0.0000000000000000  0.5000000000000000  0.3125000000000000   F   F   F
  0.0000000000000000  0.7500000000000000  0.3125000000000000   F   F   F
  0.2500000000000000  0.0000000000000000  0.3125000000000000   F   F   F
  0.2500000000000000  0.2500000000000000  0.3125000000000000   F   F   F
  0.2500000000000000  0.5000000000000000  0.3125000000000000   F   F   F
  0.2500000000000000  0.7500000000000000  0.3125000000000000   F   F   F
  0.5000000000000000  0.0000000000000000  0.3125000000000000   F   F   F
  0.5000000000000000  0.2500000000000000  0.3125000000000000   F   F   F
  0.5000000000000000  0.5000000000000000  0.3125000000000000   F   F   F
  0.5000000000000000  0.7500000000000000  0.3125000000000000   F   F   F
  0.7500000000000000  0.0000000000000000  0.3125000000000000   F   F   F
  0.7500000000000000  0.2500000000000000  0.3125000000000000   F   F   F
  0.7500000000000000  0.5000000000000000  0.3125000000000000   F   F   F
  0.7500000000000000  0.7500000000000000  0.3125000000000000   F   F   F
  0.0000000000000000  0.0000000000000000  0.4375000000000000   F   F   F
  0.0000000000000000  0.2500000000000000  0.4375000000000000   F   F   F
  0.0000000000000000  0.5000000000000000  0.4375000000000000   F   F   F
  0.0000000000000000  0.7500000000000000  0.4375000000000000   F   F   F
  0.2500000000000000  0.0000000000000000  0.4375000000000000   F   F   F
  0.2500000000000000  0.2500000000000000  0.4375000000000000   F   F   F
  0.2500000000000000  0.5000000000000000  0.4375000000000000   F   F   F
  0.2500000000000000  0.7500000000000000  0.4375000000000000   F   F   F
  0.5000000000000000  0.0000000000000000  0.4375000000000000   F   F   F
  0.5000000000000000  0.2500000000000000  0.4375000000000000   F   F   F
  0.5000000000000000  0.5000000000000000  0.4375000000000000   F   F   F
  0.5000000000000000  0.7500000000000000  0.4375000000000000   F   F   F
  0.7500000000000000  0.0000000000000000  0.4375000000000000   F   F   F
  0.7500000000000000  0.2500000000000000  0.4375000000000000   F   F   F
  0.7500000000000000  0.5000000000000000  0.4375000000000000   F   F   F
  0.7500000000000000  0.7500000000000000  0.4375000000000000   F   F   F
  0.1666666666666643  0.0833333333333357  0.3125000000000000   F   F   F
  0.1666666666666643  0.3333333333333357  0.3125000000000000   F   F   F
  0.1666666666666643  0.5833333333333357  0.3125000000000000   F   F   F
  0.1666666666666643  0.8333333333333357  0.3125000000000000   F   F   F
  0.4166666666666643  0.0833333333333357  0.3125000000000000   F   F   F
  0.4166666666666643  0.3333333333333357  0.3125000000000000   F   F   F
  0.4166666666666643  0.5833333333333357  0.3125000000000000   F   F   F
  0.4166666666666643  0.8333333333333357  0.3125000000000000   F   F   F
  0.6666666666666643  0.0833333333333357  0.3125000000000000   F   F   F
  0.6666666666666643  0.3333333333333357  0.3125000000000000   F   F   F
  0.6666666666666643  0.5833333333333357  0.3125000000000000   F   F   F
  0.6666666666666643  0.8333333333333357  0.3125000000000000   F   F   F
  0.9166666666666643  0.0833333333333357  0.3125000000000000   F   F   F
  0.9166666666666643  0.3333333333333357  0.3125000000000000   F   F   F
  0.9166666666666643  0.5833333333333357  0.3125000000000000   F   F   F
  0.9166666666666643  0.8333333333333357  0.3125000000000000   F   F   F
  0.0833333333333357  0.1666666666666643  0.4375000000000000   F   F   F
  0.0833333333333357  0.4166666666666643  0.4375000000000000   F   F   F
  0.0833333333333357  0.6666666666666643  0.4375000000000000   F   F   F
  0.0833333333333357  0.9166666666666643  0.4375000000000000   F   F   F
  0.3333333333333357  0.1666666666666643  0.4375000000000000   F   F   F
  0.3333333333333357  0.4166666666666643  0.4375000000000000   F   F   F
  0.3333333333333357  0.6666666666666643  0.4375000000000000   F   F   F
  0.3333333333333357  0.9166666666666643  0.4375000000000000   F   F   F
  0.5833333333333357  0.1666666666666643  0.4375000000000000   F   F   F
  0.5833333333333357  0.4166666666666643  0.4375000000000000   F   F   F
  0.5833333333333357  0.6666666666666643  0.4375000000000000   F   F   F
  0.5833333333333357  0.9166666666666643  0.4375000000000000   F   F   F
  0.8333333333333357  0.1666666666666643  0.4375000000000000   F   F   F
  0.8333333333333357  0.4166666666666643  0.4375000000000000   F   F   F
  0.8333333333333357  0.6666666666666643  0.4375000000000000   F   F   F
  0.8333333333333357  0.9166666666666643  0.4375000000000000   F   F   F
  0.0000000000000000  0.0000000000000000  0.5625000000000000   F   F   F
  0.0000000000000000  0.2500000000000000  0.5625000000000000   F   F   F
  0.0000000000000000  0.5000000000000000  0.5625000000000000   F   F   F
  0.0000000000000000  0.7500000000000000  0.5625000000000000   F   F   F
  0.2500000000000000  0.0000000000000000  0.5625000000000000   F   F   F
  0.2500000000000000  0.2500000000000000  0.5625000000000000   F   F   F
  0.2500000000000000  0.5000000000000000  0.5625000000000000   F   F   F
  0.2500000000000000  0.7500000000000000  0.5625000000000000   F   F   F
  0.5000000000000000  0.0000000000000000  0.5625000000000000   F   F   F
  0.5000000000000000  0.2500000000000000  0.5625000000000000   F   F   F
  0.5000000000000000  0.5000000000000000  0.5625000000000000   F   F   F
  0.5000000000000000  0.7500000000000000  0.5625000000000000   F   F   F
  0.7500000000000000  0.0000000000000000  0.5625000000000000   F   F   F
  0.7500000000000000  0.2500000000000000  0.5625000000000000   F   F   F
  0.7500000000000000  0.5000000000000000  0.5625000000000000   F   F   F
  0.7500000000000000  0.7500000000000000  0.5625000000000000   F   F   F
 -0.0045639569799763  0.0054574845095540  0.6890183870347134   T   T   T
 -0.0048626556270269  0.2557077532457163  0.6887647907511601   T   T   T
 -0.0046822113777446  0.5056665288221672  0.6885184983483189   T   T   T
 -0.0044521485601488  0.7555984404071474  0.6887310627418384   T   T   T
  0.2453153482247807  0.0054231320948264  0.6884472312791965   T   T   T
  0.2456179091548563  0.2555822534590802  0.6890295423629813   T   T   T
  0.2453320068614731  0.5058862083546195  0.6890577833326780   T   T   T
  0.2453283900197534  0.7558422957731963  0.6885029274772232   T   T   T
  0.4954497416900803  0.0058475842368746  0.6885775030844759   T   T   T
  0.4954806385597052  0.2556557447464812  0.6886096379718734   T   T   T
  0.4954517682185605  0.5054956116836054  0.6894944676629364   T   T   T
  0.4952172541630317  0.7556179433616904  0.6894663103904012   T   T   T
  0.7454355803712446  0.0058341167454499  0.6891993941999470   T   T   T
  0.7452704778312685  0.2556957552867792  0.6883596080394472   T   T   T
  0.7455250769463396  0.5055920781437429  0.6888733559467856   T   T   T
  0.7456083574920721  0.7554081068154508  0.6896959991889635   T   T   T
  0.1666666666666643  0.0833333333333357  0.5625000000000000   F   F   F
  0.1666666666666643  0.3333333333333357  0.5625000000000000   F   F   F
  0.1666666666666643  0.5833333333333357  0.5625000000000000   F   F   F
  0.1666666666666643  0.8333333333333357  0.5625000000000000   F   F   F
  0.4166666666666643  0.0833333333333357  0.5625000000000000   F   F   F
  0.4166666666666643  0.3333333333333357  0.5625000000000000   F   F   F
  0.4166666666666643  0.5833333333333357  0.5625000000000000   F   F   F
  0.4166666666666643  0.8333333333333357  0.5625000000000000   F   F   F
  0.6666666666666643  0.0833333333333357  0.5625000000000000   F   F   F
  0.6666666666666643  0.3333333333333357  0.5625000000000000   F   F   F
  0.6666666666666643  0.5833333333333357  0.5625000000000000   F   F   F
  0.6666666666666643  0.8333333333333357  0.5625000000000000   F   F   F
  0.9166666666666643  0.0833333333333357  0.5625000000000000   F   F   F
  0.9166666666666643  0.3333333333333357  0.5625000000000000   F   F   F
  0.9166666666666643  0.5833333333333357  0.5625000000000000   F   F   F
  0.9166666666666643  0.8333333333333357  0.5625000000000000   F   F   F
  0.0783448775999703  0.1722069604323040  0.6888811292135791   T   T   T
  0.0784435335772570  0.4224981630492593  0.6886755934478429   T   T   T
  0.0786101190014182  0.6723491356838354  0.6884496470095663   T   T   T
  0.0786978486628618  0.9221354290009020  0.6887053316247943   T   T   T
  0.3286462952671614  0.1721758855043027  0.6887223546836457   T   T   T
  0.3287473773314846  0.4225845668817744  0.6893210780654430   T   T   T
  0.3284768525758240  0.6724395778492281  0.6890702667505533   T   T   T
  0.3286139572030921  0.9224060701241844  0.6883501876027442   T   T   T
  0.5786255776441462  0.1724154323956533  0.6883844187988271   T   T   T
  0.5787320655230807  0.4222115106791947  0.6890289182153553   T   T   T
  0.5785130177202676  0.6722315142811930  0.6898146437456161   T   T   T
  0.5784920259650959  0.9225915778781869  0.6890813696316881   T   T   T
  0.8284205886141162  0.1724970123904434  0.6886825429351771   T   T   T
  0.8285387558013936  0.4223093766663041  0.6884431149919106   T   T   T
  0.8288540315312245  0.6722718421976511  0.6892149162857892   T   T   T
  0.8286865094665095  0.9223921825183036  0.6894492055114687   T   T   T
 -0.0099889351379986 -0.0156867716377876  0.8133408549339249   T   T   T
  0.8781184502422501  0.1209371494554149  0.8122606161894479   T   T   T
 
  0.00000000E+00  0.00000000E+00  0.00000000E+00
  0.00000000E+00  0.00000000E+00  0.00000000E+00
  0.00000000E+00  0.00000000E+00  0.00000000E+00
  0.00000000E+00  0.00000000E+00  0.00000000E+00
  0.00000000E+00  0.00000000E+00  0.00000000E+00
  0.00000000E+00  0.00000000E+00  0.00000000E+00
  0.00000000E+00  0.00000000E+00  0.00000000E+00
  0.00000000E+00  0.00000000E+00  0.00000000E+00
  0.00000000E+00  0.00000000E+00  0.00000000E+00
  0.00000000E+00  0.00000000E+00  0.00000000E+00
  0.00000000E+00  0.00000000E+00  0.00000000E+00
  0.00000000E+00  0.00000000E+00  0.00000000E+00
  0.00000000E+00  0.00000000E+00  0.00000000E+00
  0.00000000E+00  0.00000000E+00  0.00000000E+00
  0.00000000E+00  0.00000000E+00  0.00000000E+00
  0.00000000E+00  0.00000000E+00  0.00000000E+00
  0.00000000E+00  0.00000000E+00  0.00000000E+00
  0.00000000E+00  0.00000000E+00  0.00000000E+00
  0.00000000E+00  0.00000000E+00  0.00000000E+00
  0.00000000E+00  0.00000000E+00  0.00000000E+00
  0.00000000E+00  0.00000000E+00  0.00000000E+00
  0.00000000E+00  0.00000000E+00  0.00000000E+00
  0.00000000E+00  0.00000000E+00  0.00000000E+00
  0.00000000E+00  0.00000000E+00  0.00000000E+00
  0.00000000E+00  0.00000000E+00  0.00000000E+00
  0.00000000E+00  0.00000000E+00  0.00000000E+00
  0.00000000E+00  0.00000000E+00  0.00000000E+00
  0.00000000E+00  0.00000000E+00  0.00000000E+00
  0.00000000E+00  0.00000000E+00  0.00000000E+00
  0.00000000E+00  0.00000000E+00  0.00000000E+00
  0.00000000E+00  0.00000000E+00  0.00000000E+00
  0.00000000E+00  0.00000000E+00  0.00000000E+00
  0.00000000E+00  0.00000000E+00  0.00000000E+00
  0.00000000E+00  0.00000000E+00  0.00000000E+00
  0.00000000E+00  0.00000000E+00  0.00000000E+00
  0.00000000E+00  0.00000000E+00  0.00000000E+00
  0.00000000E+00  0.00000000E+00  0.00000000E+00
  0.00000000E+00  0.00000000E+00  0.00000000E+00
  0.00000000E+00  0.00000000E+00  0.00000000E+00
  0.00000000E+00  0.00000000E+00  0.00000000E+00
  0.00000000E+00  0.00000000E+00  0.00000000E+00
  0.00000000E+00  0.00000000E+00  0.00000000E+00
  0.00000000E+00  0.00000000E+00  0.00000000E+00
  0.00000000E+00  0.00000000E+00  0.00000000E+00
  0.00000000E+00  0.00000000E+00  0.00000000E+00
  0.00000000E+00  0.00000000E+00  0.00000000E+00
  0.00000000E+00  0.00000000E+00  0.00000000E+00
  0.00000000E+00  0.00000000E+00  0.00000000E+00
  0.00000000E+00  0.00000000E+00  0.00000000E+00
  0.00000000E+00  0.00000000E+00  0.00000000E+00
  0.00000000E+00  0.00000000E+00  0.00000000E+00
  0.00000000E+00  0.00000000E+00  0.00000000E+00
  0.00000000E+00  0.00000000E+00  0.00000000E+00
  0.00000000E+00  0.00000000E+00  0.00000000E+00
  0.00000000E+00  0.00000000E+00  0.00000000E+00
  0.00000000E+00  0.00000000E+00  0.00000000E+00
  0.00000000E+00  0.00000000E+00  0.00000000E+00
  0.00000000E+00  0.00000000E+00  0.00000000E+00
  0.00000000E+00  0.00000000E+00  0.00000000E+00
  0.00000000E+00  0.00000000E+00  0.00000000E+00
  0.00000000E+00  0.00000000E+00  0.00000000E+00
  0.00000000E+00  0.00000000E+00  0.00000000E+00
  0.00000000E+00  0.00000000E+00  0.00000000E+00
  0.00000000E+00  0.00000000E+00  0.00000000E+00
  0.00000000E+00  0.00000000E+00  0.00000000E+00
  0.00000000E+00  0.00000000E+00  0.00000000E+00
  0.00000000E+00  0.00000000E+00  0.00000000E+00
  0.00000000E+00  0.00000000E+00  0.00000000E+00
  0.00000000E+00  0.00000000E+00  0.00000000E+00
  0.00000000E+00  0.00000000E+00  0.00000000E+00
  0.00000000E+00  0.00000000E+00  0.00000000E+00
  0.00000000E+00  0.00000000E+00  0.00000000E+00
  0.00000000E+00  0.00000000E+00  0.00000000E+00
  0.00000000E+00  0.00000000E+00  0.00000000E+00
  0.00000000E+00  0.00000000E+00  0.00000000E+00
  0.00000000E+00  0.00000000E+00  0.00000000E+00
  0.00000000E+00  0.00000000E+00  0.00000000E+00
  0.00000000E+00  0.00000000E+00  0.00000000E+00
  0.00000000E+00  0.00000000E+00  0.00000000E+00
  0.00000000E+00  0.00000000E+00  0.00000000E+00
  0.00000000E+00  0.00000000E+00  0.00000000E+00
  0.00000000E+00  0.00000000E+00  0.00000000E+00
  0.00000000E+00  0.00000000E+00  0.00000000E+00
  0.00000000E+00  0.00000000E+00  0.00000000E+00
  0.00000000E+00  0.00000000E+00  0.00000000E+00
  0.00000000E+00  0.00000000E+00  0.00000000E+00
  0.00000000E+00  0.00000000E+00  0.00000000E+00
  0.00000000E+00  0.00000000E+00  0.00000000E+00
  0.00000000E+00  0.00000000E+00  0.00000000E+00
  0.00000000E+00  0.00000000E+00  0.00000000E+00
  0.00000000E+00  0.00000000E+00  0.00000000E+00
  0.00000000E+00  0.00000000E+00  0.00000000E+00
  0.00000000E+00  0.00000000E+00  0.00000000E+00
  0.00000000E+00  0.00000000E+00  0.00000000E+00
  0.00000000E+00  0.00000000E+00  0.00000000E+00
  0.00000000E+00  0.00000000E+00  0.00000000E+00
  0.00000000E+00  0.00000000E+00  0.00000000E+00
  0.00000000E+00  0.00000000E+00  0.00000000E+00
  0.00000000E+00  0.00000000E+00  0.00000000E+00
  0.00000000E+00  0.00000000E+00  0.00000000E+00
  0.00000000E+00  0.00000000E+00  0.00000000E+00
  0.00000000E+00  0.00000000E+00  0.00000000E+00
  0.00000000E+00  0.00000000E+00  0.00000000E+00
  0.00000000E+00  0.00000000E+00  0.00000000E+00
  0.00000000E+00  0.00000000E+00  0.00000000E+00
  0.00000000E+00  0.00000000E+00  0.00000000E+00
  0.00000000E+00  0.00000000E+00  0.00000000E+00
  0.00000000E+00  0.00000000E+00  0.00000000E+00
  0.00000000E+00  0.00000000E+00  0.00000000E+00
  0.00000000E+00  0.00000000E+00  0.00000000E+00
  0.00000000E+00  0.00000000E+00  0.00000000E+00
  0.00000000E+00  0.00000000E+00  0.00000000E+00
  0.00000000E+00  0.00000000E+00  0.00000000E+00
  0.00000000E+00  0.00000000E+00  0.00000000E+00
  0.00000000E+00  0.00000000E+00  0.00000000E+00
  0.00000000E+00  0.00000000E+00  0.00000000E+00
  0.00000000E+00  0.00000000E+00  0.00000000E+00
  0.00000000E+00  0.00000000E+00  0.00000000E+00
  0.00000000E+00  0.00000000E+00  0.00000000E+00
  0.00000000E+00  0.00000000E+00  0.00000000E+00
  0.00000000E+00  0.00000000E+00  0.00000000E+00
  0.00000000E+00  0.00000000E+00  0.00000000E+00
  0.00000000E+00  0.00000000E+00  0.00000000E+00
  0.00000000E+00  0.00000000E+00  0.00000000E+00
  0.00000000E+00  0.00000000E+00  0.00000000E+00
  0.00000000E+00  0.00000000E+00  0.00000000E+00
  0.00000000E+00  0.00000000E+00  0.00000000E+00
  0.00000000E+00  0.00000000E+00  0.00000000E+00
  0.00000000E+00  0.00000000E+00  0.00000000E+00
  0.00000000E+00  0.00000000E+00  0.00000000E+00
  0.00000000E+00  0.00000000E+00  0.00000000E+00
  0.00000000E+00  0.00000000E+00  0.00000000E+00
