K12 V48 O119                            
   1.00000000000000     
    11.0554125600000006    0.0000000000000000    0.0000000000000007
    -0.0000000000000007   11.6356429800000001    0.0000000000000007
     0.0000000000000000    0.0000000000000000   18.6053069399999984
   K    V    O 
    12    48   119
Selective dynamics
Direct
  0.0000000000000000  0.5782537600000026  0.2500000000000000   F   F   F
  0.3333333333333357  0.5782537600000026  0.2500000000000000   F   F   F
  0.6666666666666643  0.5782537600000026  0.2500000000000000   F   F   F
  0.0000000000000000  0.4217462399999974  0.7500000000000000   F   F   F
  0.3333333333333357  0.4217462399999974  0.7500000000000000   F   F   F
  0.6666666666666643  0.4217462399999974  0.7500000000000000   F   F   F
  0.1712813912979229  0.0613632949470585  0.2464501786252644   T   T   T
  0.5000000000000000  0.0782537600000026  0.2500000000000000   F   F   F
  0.8280800191552699  0.0616210415736164  0.2483307458961422   T   T   T
  0.8333333333333357  0.9217462399999974  0.7500000000000000   F   F   F
  0.1666666666666643  0.9217462399999974  0.7500000000000000   F   F   F
  0.5000000000000000  0.9217462399999974  0.7500000000000000   F   F   F
  0.0007692687874055  0.9266413318970504  0.4097903440195658   T   T   T
  0.3319234083348497  0.9325158365515229  0.4218297274353803   T   T   T
  0.6657786494111652  0.9351083156473249  0.4205574940498379   T   T   T
  0.9992355379163533  0.0616262968318536  0.5813351386212121   T   T   T
  0.3320818102405788  0.0626206053396913  0.5778723091403180   T   T   T
  0.6669921429919281  0.0643566703120097  0.5768143030917416   T   T   T
  0.0000000000000000  0.9347524800000002  0.0780133900000024   F   F   F
  0.3333333333333357  0.9347524800000002  0.0780133900000024   F   F   F
  0.6666666666666643  0.9347524800000002  0.0780133900000024   F   F   F
  0.0000000000000000  0.0652475199999998  0.9219866099999976   F   F   F
  0.3333333333333357  0.0652475199999998  0.9219866099999976   F   F   F
  0.6666666666666643  0.0652475199999998  0.9219866099999976   F   F   F
  0.1689425393020526  0.4287209632005726  0.4148165250158678   T   T   T
  0.5000000000000000  0.4347524800000002  0.4219866099999976   F   F   F
  0.8295700522323306  0.4332961359432301  0.4213349337499487   T   T   T
  0.1666666666666643  0.5652475199999998  0.5780133900000024   F   F   F
  0.5000000000000000  0.5652475199999998  0.5780133900000024   F   F   F
  0.8333333333333357  0.5652475199999998  0.5780133900000024   F   F   F
  0.1666666666666643  0.4347524800000002  0.0780133900000024   F   F   F
  0.5000000000000000  0.4347524800000002  0.0780133900000024   F   F   F
  0.8333333333333357  0.4347524800000002  0.0780133900000024   F   F   F
  0.8333333333333357  0.5652475199999998  0.9219866099999976   F   F   F
  0.1666666666666643  0.5652475199999998  0.9219866099999976   F   F   F
  0.5000000000000000  0.5652475199999998  0.9219866099999976   F   F   F
 -0.0001682965529517  0.2326773237493999  0.4477190850885248   T   T   T
  0.3375250851196104  0.2290513972002494  0.4190303612132112   T   T   T
  0.6681739361070635  0.2296422981399592  0.4165380481392504   T   T   T
  0.9996150181409438  0.7698571399019261  0.5790075959985862   T   T   T
  0.3333333333333357  0.7686988499999998  0.5800612000000029   F   F   F
  0.6666666666666643  0.7686988499999998  0.5800612000000029   F   F   F
  0.0000000000000000  0.2313011500000002  0.0800612000000029   F   F   F
  0.3333333333333357  0.2313011500000002  0.0800612000000029   F   F   F
  0.6666666666666643  0.2313011500000002  0.0800612000000029   F   F   F
  0.0000000000000000  0.7686988499999998  0.9199387999999971   F   F   F
  0.3333333333333357  0.7686988499999998  0.9199387999999971   F   F   F
  0.6666666666666643  0.7686988499999998  0.9199387999999971   F   F   F
  0.8311908351541363  0.7301775394232810  0.4201223144936216   T   T   T
  0.1673902586764195  0.7242488916498859  0.4228766959799883   T   T   T
  0.5000000000000000  0.7313011500000002  0.4199387999999971   F   F   F
  0.1721759708806850  0.2708041212990598  0.5786248477966570   T   T   T
  0.5000000000000000  0.2686988499999998  0.5800612000000029   F   F   F
  0.8300696697605293  0.2696000203241853  0.5803401473618777   T   T   T
  0.8333333333333357  0.7313011500000002  0.0800612000000029   F   F   F
  0.1666666666666643  0.7313011500000002  0.0800612000000029   F   F   F
  0.5000000000000000  0.7313011500000002  0.0800612000000029   F   F   F
  0.8333333333333357  0.2686988499999998  0.9199387999999971   F   F   F
  0.1666666666666643  0.2686988499999998  0.9199387999999971   F   F   F
  0.5000000000000000  0.2686988499999998  0.9199387999999971   F   F   F
  0.3340536198789677  0.0822749493213266  0.4547945119700103   T   T   T
  0.6681527407894722  0.0763691552739235  0.4548769364303045   T   T   T
  0.0010337251176963  0.9273480067716299  0.5430532733556483   T   T   T
  0.3312889284507844  0.9210828371662055  0.5464262331591483   T   T   T
  0.6656307405377861  0.9173190552055888  0.5467995187463454   T   T   T
  0.0000000000000000  0.0801719600000013  0.0465899900000011   F   F   F
  0.3333333333333357  0.0801719600000013  0.0465899900000011   F   F   F
  0.6666666666666643  0.0801719600000013  0.0465899900000011   F   F   F
  0.0000000000000000  0.9198280399999987  0.9534100099999989   F   F   F
  0.3333333333333357  0.9198280399999987  0.9534100099999989   F   F   F
  0.6666666666666643  0.9198280399999987  0.9534100099999989   F   F   F
  0.8333333333333357  0.5801719600000013  0.4534100099999989   F   F   F
  0.1666666666666643  0.5801719600000013  0.4534100099999989   F   F   F
  0.5000000000000000  0.5801719600000013  0.4534100099999989   F   F   F
  0.1635500180925237  0.4162848947668129  0.5454121346349230   T   T   T
  0.5000000000000000  0.4198280399999987  0.5465899900000011   F   F   F
  0.8332725512509125  0.4241058062495138  0.5460661095741943   T   T   T
  0.8333333333333357  0.5801719600000013  0.0465899900000011   F   F   F
  0.1666666666666643  0.5801719600000013  0.0465899900000011   F   F   F
  0.5000000000000000  0.5801719600000013  0.0465899900000011   F   F   F
  0.8333333333333357  0.4198280399999987  0.9534100099999989   F   F   F
  0.1666666666666643  0.4198280399999987  0.9534100099999989   F   F   F
  0.5000000000000000  0.4198280399999987  0.9534100099999989   F   F   F
  0.0034925949205088  0.2376187548159222  0.5516263229795053   T   T   T
  0.3339795694332768  0.2411977750968615  0.5610105215687986   T   T   T
  0.6606570919709709  0.2384794880484640  0.5613433765366689   T   T   T
  0.9984965254622123  0.7593496436538302  0.4417492839249932   T   T   T
  0.3309740639152524  0.7630544176942100  0.4432760985236179   T   T   T
  0.6701281977016785  0.7595352300906533  0.4422436224742659   T   T   T
  0.0000000000000000  0.2404541200000025  0.9418101899999982   F   F   F
  0.3333333333333357  0.2404541200000025  0.9418101899999982   F   F   F
  0.6666666666666643  0.2404541200000025  0.9418101899999982   F   F   F
  0.0000000000000000  0.7595458799999975  0.0581898100000018   F   F   F
  0.3333333333333357  0.7595458799999975  0.0581898100000018   F   F   F
  0.6666666666666643  0.7595458799999975  0.0581898100000018   F   F   F
  0.8279877221658594  0.7401900390986536  0.5577219775275052   T   T   T
  0.1666750270066241  0.7335101307445632  0.5567575466304749   T   T   T
  0.5000000000000000  0.7404541200000025  0.5581898100000018   F   F   F
  0.1735571401561228  0.2590755395352458  0.4407770278981810   T   T   T
  0.5000000000000000  0.2595458799999975  0.4418101899999982   F   F   F
  0.8299421400264259  0.2647006707036466  0.4497216378696672   T   T   T
  0.8333333333333357  0.7404541200000025  0.9418101899999982   F   F   F
  0.1666666666666643  0.7404541200000025  0.9418101899999982   F   F   F
  0.5000000000000000  0.7404541200000025  0.9418101899999982   F   F   F
  0.8333333333333357  0.2595458799999975  0.0581898100000018   F   F   F
  0.1666666666666643  0.2595458799999975  0.0581898100000018   F   F   F
  0.5000000000000000  0.2595458799999975  0.0581898100000018   F   F   F
  0.9978893934825867  0.0898587844702455  0.4264000011529598   T   T   T
  0.3372414900362417  0.2075989382668996  0.3335841601415062   T   T   T
  0.6749609846882699  0.2049373439342910  0.3306485686406903   T   T   T
  0.9991265222142864  0.7959132726904963  0.6647309809281496   T   T   T
  0.3333333333333357  0.7914145800000014  0.6656442000000027   F   F   F
  0.6666666666666643  0.7914145800000014  0.6656442000000027   F   F   F
  0.0000000000000000  0.2085854199999986  0.1656442000000027   F   F   F
  0.3333333333333357  0.2085854199999986  0.1656442000000027   F   F   F
  0.6666666666666643  0.2085854199999986  0.1656442000000027   F   F   F
  0.0000000000000000  0.7914145800000014  0.8343557999999973   F   F   F
  0.3333333333333357  0.7914145800000014  0.8343557999999973   F   F   F
  0.6666666666666643  0.7914145800000014  0.8343557999999973   F   F   F
  0.8316917144956125  0.7069673192916447  0.3348511690229952   T   T   T
  0.1676215440012132  0.7068032870549522  0.3368990028997369   T   T   T
  0.5000000000000000  0.7085854199999986  0.3343557999999973   F   F   F
  0.8393524943659646  0.2932749679764833  0.6661580877425552   T   T   T
  0.1631120215702888  0.2891315243381499  0.6639804721793996   T   T   T
  0.5000000000000000  0.2914145800000014  0.6656442000000027   F   F   F
  0.8333333333333357  0.7085854199999986  0.1656442000000027   F   F   F
  0.1666666666666643  0.7085854199999986  0.1656442000000027   F   F   F
  0.5000000000000000  0.7085854199999986  0.1656442000000027   F   F   F
  0.1666666666666643  0.2914145800000014  0.8343557999999973   F   F   F
  0.5000000000000000  0.2914145800000014  0.8343557999999973   F   F   F
  0.8333333333333357  0.2914145800000014  0.8343557999999973   F   F   F
  0.9967821890406275  0.3925743142050289  0.4271440955906013   T   T   T
  0.3373467877856272  0.3948302453059797  0.4341134695810773   T   T   T
  0.6666335478561942  0.3993124772299767  0.4343234019120135   T   T   T
  0.0000000000000000  0.6005226999999991  0.5654753499999998   F   F   F
  0.3333333333333357  0.6005226999999991  0.5654753499999998   F   F   F
  0.6666666666666643  0.6005226999999991  0.5654753499999998   F   F   F
  0.0000000000000000  0.3994773000000009  0.0654753499999998   F   F   F
  0.3333333333333357  0.3994773000000009  0.0654753499999998   F   F   F
  0.6666666666666643  0.3994773000000009  0.0654753499999998   F   F   F
  0.0000000000000000  0.6005226999999991  0.9345246500000002   F   F   F
  0.3333333333333357  0.6005226999999991  0.9345246500000002   F   F   F
  0.6666666666666643  0.6005226999999991  0.9345246500000002   F   F   F
  0.8312939740064695  0.8962973112774917  0.4299887576338925   T   T   T
  0.1695047659213397  0.8985168361075002  0.4326554338588016   T   T   T
  0.5000000000000000  0.8994773000000009  0.4345246500000002   F   F   F
  0.8338017287916745  0.1000145418259624  0.5661726981960772   T   T   T
  0.1645039572161195  0.1048188776168868  0.5656212916833429   T   T   T
  0.5000000000000000  0.1005226999999991  0.5654753499999998   F   F   F
  0.8333333333333357  0.8994773000000009  0.0654753499999998   F   F   F
  0.1666666666666643  0.8994773000000009  0.0654753499999998   F   F   F
  0.5000000000000000  0.8994773000000009  0.0654753499999998   F   F   F
  0.8333333333333357  0.1005226999999991  0.9345246500000002   F   F   F
  0.1666666666666643  0.1005226999999991  0.9345246500000002   F   F   F
  0.5000000000000000  0.1005226999999991  0.9345246500000002   F   F   F
  0.0025639632205835  0.9325639906918990  0.3223228467965644   T   T   T
  0.3355553627082812  0.9549348261515685  0.3359832002577470   T   T   T
  0.6622718424158398  0.9537856459720417  0.3343223027953575   T   T   T
  0.0006292123289937  0.0431689453662247  0.6671619614973797   T   T   T
  0.3319559133897612  0.0464376487181802  0.6643690013887955   T   T   T
  0.6662088290000872  0.0445553214688218  0.6628310653104863   T   T   T
  0.0000000000000000  0.9530042000000023  0.1641710500000002   F   F   F
  0.3333333333333357  0.9530042000000023  0.1641710500000002   F   F   F
  0.6666666666666643  0.9530042000000023  0.1641710500000002   F   F   F
  0.0000000000000000  0.0469957999999977  0.8358289499999998   F   F   F
  0.3333333333333357  0.0469957999999977  0.8358289499999998   F   F   F
  0.6666666666666643  0.0469957999999977  0.8358289499999998   F   F   F
  0.1701336364255328  0.4517463054500658  0.3285275686336434   T   T   T
  0.5000000000000000  0.4530042000000023  0.3358289499999998   F   F   F
  0.8288933590634412  0.4530599909191998  0.3352259864020396   T   T   T
  0.8333333333333357  0.5469957999999977  0.6641710500000002   F   F   F
  0.1666666666666643  0.5469957999999977  0.6641710500000002   F   F   F
  0.5000000000000000  0.5469957999999977  0.6641710500000002   F   F   F
  0.8333333333333357  0.4530042000000023  0.1641710500000002   F   F   F
  0.1666666666666643  0.4530042000000023  0.1641710500000002   F   F   F
  0.5000000000000000  0.4530042000000023  0.1641710500000002   F   F   F
  0.1666666666666643  0.5469957999999977  0.8358289499999998   F   F   F
  0.5000000000000000  0.5469957999999977  0.8358289499999998   F   F   F
  0.8333333333333357  0.5469957999999977  0.8358289499999998   F   F   F
 
  0.00000000E+00  0.00000000E+00  0.00000000E+00
  0.00000000E+00  0.00000000E+00  0.00000000E+00
  0.00000000E+00  0.00000000E+00  0.00000000E+00
  0.00000000E+00  0.00000000E+00  0.00000000E+00
  0.00000000E+00  0.00000000E+00  0.00000000E+00
  0.00000000E+00  0.00000000E+00  0.00000000E+00
  0.00000000E+00  0.00000000E+00  0.00000000E+00
  0.00000000E+00  0.00000000E+00  0.00000000E+00
  0.00000000E+00  0.00000000E+00  0.00000000E+00
  0.00000000E+00  0.00000000E+00  0.00000000E+00
  0.00000000E+00  0.00000000E+00  0.00000000E+00
  0.00000000E+00  0.00000000E+00  0.00000000E+00
  0.00000000E+00  0.00000000E+00  0.00000000E+00
  0.00000000E+00  0.00000000E+00  0.00000000E+00
  0.00000000E+00  0.00000000E+00  0.00000000E+00
  0.00000000E+00  0.00000000E+00  0.00000000E+00
  0.00000000E+00  0.00000000E+00  0.00000000E+00
  0.00000000E+00  0.00000000E+00  0.00000000E+00
  0.00000000E+00  0.00000000E+00  0.00000000E+00
  0.00000000E+00  0.00000000E+00  0.00000000E+00
  0.00000000E+00  0.00000000E+00  0.00000000E+00
  0.00000000E+00  0.00000000E+00  0.00000000E+00
  0.00000000E+00  0.00000000E+00  0.00000000E+00
  0.00000000E+00  0.00000000E+00  0.00000000E+00
  0.00000000E+00  0.00000000E+00  0.00000000E+00
  0.00000000E+00  0.00000000E+00  0.00000000E+00
  0.00000000E+00  0.00000000E+00  0.00000000E+00
  0.00000000E+00  0.00000000E+00  0.00000000E+00
  0.00000000E+00  0.00000000E+00  0.00000000E+00
  0.00000000E+00  0.00000000E+00  0.00000000E+00
  0.00000000E+00  0.00000000E+00  0.00000000E+00
  0.00000000E+00  0.00000000E+00  0.00000000E+00
  0.00000000E+00  0.00000000E+00  0.00000000E+00
  0.00000000E+00  0.00000000E+00  0.00000000E+00
  0.00000000E+00  0.00000000E+00  0.00000000E+00
  0.00000000E+00  0.00000000E+00  0.00000000E+00
  0.00000000E+00  0.00000000E+00  0.00000000E+00
  0.00000000E+00  0.00000000E+00  0.00000000E+00
  0.00000000E+00  0.00000000E+00  0.00000000E+00
  0.00000000E+00  0.00000000E+00  0.00000000E+00
  0.00000000E+00  0.00000000E+00  0.00000000E+00
  0.00000000E+00  0.00000000E+00  0.00000000E+00
  0.00000000E+00  0.00000000E+00  0.00000000E+00
  0.00000000E+00  0.00000000E+00  0.00000000E+00
  0.00000000E+00  0.00000000E+00  0.00000000E+00
  0.00000000E+00  0.00000000E+00  0.00000000E+00
  0.00000000E+00  0.00000000E+00  0.00000000E+00
  0.00000000E+00  0.00000000E+00  0.00000000E+00
  0.00000000E+00  0.00000000E+00  0.00000000E+00
  0.00000000E+00  0.00000000E+00  0.00000000E+00
  0.00000000E+00  0.00000000E+00  0.00000000E+00
  0.00000000E+00  0.00000000E+00  0.00000000E+00
  0.00000000E+00  0.00000000E+00  0.00000000E+00
  0.00000000E+00  0.00000000E+00  0.00000000E+00
  0.00000000E+00  0.00000000E+00  0.00000000E+00
  0.00000000E+00  0.00000000E+00  0.00000000E+00
  0.00000000E+00  0.00000000E+00  0.00000000E+00
  0.00000000E+00  0.00000000E+00  0.00000000E+00
  0.00000000E+00  0.00000000E+00  0.00000000E+00
  0.00000000E+00  0.00000000E+00  0.00000000E+00
  0.00000000E+00  0.00000000E+00  0.00000000E+00
  0.00000000E+00  0.00000000E+00  0.00000000E+00
  0.00000000E+00  0.00000000E+00  0.00000000E+00
  0.00000000E+00  0.00000000E+00  0.00000000E+00
  0.00000000E+00  0.00000000E+00  0.00000000E+00
  0.00000000E+00  0.00000000E+00  0.00000000E+00
  0.00000000E+00  0.00000000E+00  0.00000000E+00
  0.00000000E+00  0.00000000E+00  0.00000000E+00
  0.00000000E+00  0.00000000E+00  0.00000000E+00
  0.00000000E+00  0.00000000E+00  0.00000000E+00
  0.00000000E+00  0.00000000E+00  0.00000000E+00
  0.00000000E+00  0.00000000E+00  0.00000000E+00
  0.00000000E+00  0.00000000E+00  0.00000000E+00
  0.00000000E+00  0.00000000E+00  0.00000000E+00
  0.00000000E+00  0.00000000E+00  0.00000000E+00
  0.00000000E+00  0.00000000E+00  0.00000000E+00
  0.00000000E+00  0.00000000E+00  0.00000000E+00
  0.00000000E+00  0.00000000E+00  0.00000000E+00
  0.00000000E+00  0.00000000E+00  0.00000000E+00
  0.00000000E+00  0.00000000E+00  0.00000000E+00
  0.00000000E+00  0.00000000E+00  0.00000000E+00
  0.00000000E+00  0.00000000E+00  0.00000000E+00
  0.00000000E+00  0.00000000E+00  0.00000000E+00
  0.00000000E+00  0.00000000E+00  0.00000000E+00
  0.00000000E+00  0.00000000E+00  0.00000000E+00
  0.00000000E+00  0.00000000E+00  0.00000000E+00
  0.00000000E+00  0.00000000E+00  0.00000000E+00
  0.00000000E+00  0.00000000E+00  0.00000000E+00
  0.00000000E+00  0.00000000E+00  0.00000000E+00
  0.00000000E+00  0.00000000E+00  0.00000000E+00
  0.00000000E+00  0.00000000E+00  0.00000000E+00
  0.00000000E+00  0.00000000E+00  0.00000000E+00
  0.00000000E+00  0.00000000E+00  0.00000000E+00
  0.00000000E+00  0.00000000E+00  0.00000000E+00
  0.00000000E+00  0.00000000E+00  0.00000000E+00
  0.00000000E+00  0.00000000E+00  0.00000000E+00
  0.00000000E+00  0.00000000E+00  0.00000000E+00
  0.00000000E+00  0.00000000E+00  0.00000000E+00
  0.00000000E+00  0.00000000E+00  0.00000000E+00
  0.00000000E+00  0.00000000E+00  0.00000000E+00
  0.00000000E+00  0.00000000E+00  0.00000000E+00
  0.00000000E+00  0.00000000E+00  0.00000000E+00
  0.00000000E+00  0.00000000E+00  0.00000000E+00
  0.00000000E+00  0.00000000E+00  0.00000000E+00
  0.00000000E+00  0.00000000E+00  0.00000000E+00
  0.00000000E+00  0.00000000E+00  0.00000000E+00
  0.00000000E+00  0.00000000E+00  0.00000000E+00
  0.00000000E+00  0.00000000E+00  0.00000000E+00
  0.00000000E+00  0.00000000E+00  0.00000000E+00
  0.00000000E+00  0.00000000E+00  0.00000000E+00
  0.00000000E+00  0.00000000E+00  0.00000000E+00
  0.00000000E+00  0.00000000E+00  0.00000000E+00
  0.00000000E+00  0.00000000E+00  0.00000000E+00
  0.00000000E+00  0.00000000E+00  0.00000000E+00
  0.00000000E+00  0.00000000E+00  0.00000000E+00
  0.00000000E+00  0.00000000E+00  0.00000000E+00
  0.00000000E+00  0.00000000E+00  0.00000000E+00
  0.00000000E+00  0.00000000E+00  0.00000000E+00
  0.00000000E+00  0.00000000E+00  0.00000000E+00
  0.00000000E+00  0.00000000E+00  0.00000000E+00
  0.00000000E+00  0.00000000E+00  0.00000000E+00
  0.00000000E+00  0.00000000E+00  0.00000000E+00
  0.00000000E+00  0.00000000E+00  0.00000000E+00
  0.00000000E+00  0.00000000E+00  0.00000000E+00
  0.00000000E+00  0.00000000E+00  0.00000000E+00
  0.00000000E+00  0.00000000E+00  0.00000000E+00
  0.00000000E+00  0.00000000E+00  0.00000000E+00
  0.00000000E+00  0.00000000E+00  0.00000000E+00
  0.00000000E+00  0.00000000E+00  0.00000000E+00
  0.00000000E+00  0.00000000E+00  0.00000000E+00
  0.00000000E+00  0.00000000E+00  0.00000000E+00
  0.00000000E+00  0.00000000E+00  0.00000000E+00
  0.00000000E+00  0.00000000E+00  0.00000000E+00
  0.00000000E+00  0.00000000E+00  0.00000000E+00
  0.00000000E+00  0.00000000E+00  0.00000000E+00
  0.00000000E+00  0.00000000E+00  0.00000000E+00
  0.00000000E+00  0.00000000E+00  0.00000000E+00
  0.00000000E+00  0.00000000E+00  0.00000000E+00
  0.00000000E+00  0.00000000E+00  0.00000000E+00
  0.00000000E+00  0.00000000E+00  0.00000000E+00
  0.00000000E+00  0.00000000E+00  0.00000000E+00
  0.00000000E+00  0.00000000E+00  0.00000000E+00
  0.00000000E+00  0.00000000E+00  0.00000000E+00
  0.00000000E+00  0.00000000E+00  0.00000000E+00
  0.00000000E+00  0.00000000E+00  0.00000000E+00
  0.00000000E+00  0.00000000E+00  0.00000000E+00
  0.00000000E+00  0.00000000E+00  0.00000000E+00
  0.00000000E+00  0.00000000E+00  0.00000000E+00
  0.00000000E+00  0.00000000E+00  0.00000000E+00
  0.00000000E+00  0.00000000E+00  0.00000000E+00
  0.00000000E+00  0.00000000E+00  0.00000000E+00
  0.00000000E+00  0.00000000E+00  0.00000000E+00
  0.00000000E+00  0.00000000E+00  0.00000000E+00
  0.00000000E+00  0.00000000E+00  0.00000000E+00
  0.00000000E+00  0.00000000E+00  0.00000000E+00
  0.00000000E+00  0.00000000E+00  0.00000000E+00
  0.00000000E+00  0.00000000E+00  0.00000000E+00
  0.00000000E+00  0.00000000E+00  0.00000000E+00
  0.00000000E+00  0.00000000E+00  0.00000000E+00
  0.00000000E+00  0.00000000E+00  0.00000000E+00
  0.00000000E+00  0.00000000E+00  0.00000000E+00
  0.00000000E+00  0.00000000E+00  0.00000000E+00
  0.00000000E+00  0.00000000E+00  0.00000000E+00
  0.00000000E+00  0.00000000E+00  0.00000000E+00
  0.00000000E+00  0.00000000E+00  0.00000000E+00
  0.00000000E+00  0.00000000E+00  0.00000000E+00
  0.00000000E+00  0.00000000E+00  0.00000000E+00
  0.00000000E+00  0.00000000E+00  0.00000000E+00
  0.00000000E+00  0.00000000E+00  0.00000000E+00
  0.00000000E+00  0.00000000E+00  0.00000000E+00
  0.00000000E+00  0.00000000E+00  0.00000000E+00
  0.00000000E+00  0.00000000E+00  0.00000000E+00
  0.00000000E+00  0.00000000E+00  0.00000000E+00
  0.00000000E+00  0.00000000E+00  0.00000000E+00
  0.00000000E+00  0.00000000E+00  0.00000000E+00
  0.00000000E+00  0.00000000E+00  0.00000000E+00
  0.00000000E+00  0.00000000E+00  0.00000000E+00
  0.00000000E+00  0.00000000E+00  0.00000000E+00
  0.00000000E+00  0.00000000E+00  0.00000000E+00
