Na2 Mn20 Fe60 S2                        
   1.00000000000000     
     9.9108674400000005    0.0000000000000000    0.0000000000000006
     2.4777168599999966    8.9838207779895107    0.5838504400220752
     0.0000000000000000    0.0000000000000000   28.3539106363174263
   Na   Mn   Fe   S 
     2    20    60     2
Selective dynamics
Direct
  0.9952692744955305  0.0683453103770053  0.7638729339755365   T   T   T
  0.8596251108100782  0.6637642704562756  0.7606895175290164   T   T   T
  0.3083333333333371  0.7666666666666657  0.3944444444444457   F   F   F
  0.8083333333333371  0.7666666666666657  0.3944444444444457   F   F   F
  0.4083333333333314  0.3666666666666671  0.4611111111111086   F   F   F
  0.9083333333333314  0.3666666666666671  0.4611111111111086   F   F   F
  0.0083333333333329  0.9666666666666686  0.5277777777777786   F   F   F
  0.5083333333333329  0.9666666666666686  0.5277777777777786   F   F   F
  0.1083333333333343  0.5666666666666700  0.5944444444444414   F   F   F
  0.6083333333333343  0.5666666666666700  0.5944444444444414   F   F   F
  0.2151686643607778  0.1407779682553768  0.6645549396099185   T   T   T
  0.7209333154497231  0.1256606953163910  0.6657096955964561   T   T   T
  0.4916666666666671  0.0333333333333314  0.4055555555555586   F   F   F
  0.9916666666666671  0.0333333333333314  0.4055555555555586   F   F   F
  0.0916666666666615  0.6333333333333329  0.4722222222222214   F   F   F
  0.5916666666666686  0.6333333333333329  0.4722222222222214   F   F   F
  0.1916666666666629  0.2333333333333343  0.5388888888888914   F   F   F
  0.6916666666666629  0.2333333333333343  0.5388888888888914   F   F   F
  0.2933833723601135  0.8368716749059989  0.6067574952376519   T   T   T
  0.7881604888502900  0.8347028249355253  0.6099061144697856   T   T   T
  0.3916666666666657  0.4333333333333300  0.3388888888888886   F   F   F
  0.8916666666666657  0.4333333333333300  0.3388888888888886   F   F   F
  0.3943013584394279  0.9326746603901412  0.3384497735934318   F   F   F
  0.8943013584394279  0.9326746603901412  0.3384497735934318   F   F   F
  0.4943013584394222  0.5326746603901427  0.4051164402600946   F   F   F
  0.9943013584394222  0.5326746603901427  0.4051164402600946   F   F   F
  0.0943013584394237  0.1326746603901441  0.4717831069267646   F   F   F
  0.5943013584394237  0.1326746603901441  0.4717831069267646   F   F   F
  0.1943013584394251  0.7326746603901455  0.5384497735934275   F   F   F
  0.6943013584394251  0.7326746603901455  0.5384497735934275   F   F   F
  0.2993697113015369  0.3291312928327437  0.6106576191611724   T   T   T
  0.7965011342584266  0.3317118357865003  0.6100495765153817   T   T   T
  0.2413373301950728  0.0346506792197161  0.4064337861464722   F   F   F
  0.7413373301950728  0.0346506792197161  0.4064337861464722   F   F   F
  0.3413373301950671  0.6346506792197104  0.4731004528131422   F   F   F
  0.8413373301950671  0.6346506792197104  0.4731004528131422   F   F   F
  0.4413373301950685  0.2346506792197118  0.5397671194798122   F   F   F
  0.9413373301950685  0.2346506792197118  0.5397671194798122   F   F   F
  0.0431712556952208  0.8344363565955368  0.6075936609342230   T   T   T
  0.5370035902496760  0.8274117596242510  0.6118519742127514   T   T   T
  0.1413373301950713  0.4346506792197147  0.3397671194798093   F   F   F
  0.6413373301950713  0.4346506792197147  0.3397671194798093   F   F   F
  0.1393613113654979  0.9326746603901412  0.3384497735934318   F   F   F
  0.6393613113654979  0.9326746603901412  0.3384497735934318   F   F   F
  0.2393613113654993  0.5326746603901427  0.4051164402600946   F   F   F
  0.7393613113654993  0.5326746603901427  0.4051164402600946   F   F   F
  0.3393613113655007  0.1326746603901441  0.4717831069267646   F   F   F
  0.8393613113655007  0.1326746603901441  0.4717831069267646   F   F   F
  0.4393613113655022  0.7326746603901455  0.5384497735934275   F   F   F
  0.9393613113655022  0.7326746603901455  0.5384497735934275   F   F   F
  0.0355558543779645  0.3319131467457770  0.6096396582473425   T   T   T
  0.5396045776411442  0.3298538591266197  0.6104188833581832   T   T   T
  0.4056986415605763  0.8673253396098559  0.4615502264065725   F   F   F
  0.9056986415605763  0.8673253396098559  0.4615502264065725   F   F   F
  0.0056986415605778  0.4673253396098573  0.5282168930732354   F   F   F
  0.5056986415605778  0.4673253396098573  0.5282168930732354   F   F   F
  0.1056986415605721  0.0673253396098588  0.5948835597399054   F   F   F
  0.6056986415605721  0.0673253396098588  0.5948835597399054   F   F   F
  0.2080859169579309  0.6659588569102042  0.6614178547778504   T   T   T
  0.7290030664372003  0.6267738619341282  0.6607437585981926   T   T   T
  0.3056986415605749  0.2673253396098545  0.3948835597399025   F   F   F
  0.8056986415605749  0.2673253396098545  0.3948835597399025   F   F   F
  0.0586626698049315  0.7653493207802882  0.3935662138535250   F   F   F
  0.5586626698049315  0.7653493207802882  0.3935662138535250   F   F   F
  0.1586626698049329  0.3653493207802896  0.4602328805201878   F   F   F
  0.6586626698049329  0.3653493207802896  0.4602328805201878   F   F   F
  0.2586626698049272  0.9653493207802839  0.5268995471868578   F   F   F
  0.7586626698049272  0.9653493207802839  0.5268995471868578   F   F   F
  0.3586626698049287  0.5653493207802853  0.5935662138535278   F   F   F
  0.8586626698049287  0.5653493207802853  0.5935662138535278   F   F   F
  0.4757972711636334  0.1128684524823455  0.6663081465748113   T   T   T
  0.9689024050911282  0.1314539484691554  0.6604316835701552   T   T   T
  0.1606386886344993  0.8673253396098559  0.4615502264065725   F   F   F
  0.6606386886344993  0.8673253396098559  0.4615502264065725   F   F   F
  0.2606386886345007  0.4673253396098573  0.5282168930732354   F   F   F
  0.7606386886345007  0.4673253396098573  0.5282168930732354   F   F   F
  0.3606386886345021  0.0673253396098588  0.5948835597399054   F   F   F
  0.8606386886345021  0.0673253396098588  0.5948835597399054   F   F   F
  0.4738992969826472  0.6299682511363265  0.6608499088234824   T   T   T
  0.9713766330288974  0.6542891926206588  0.6639490058386808   T   T   T
  0.0606386886344978  0.2673253396098545  0.3948835597399025   F   F   F
  0.5606386886344978  0.2673253396098545  0.3948835597399025   F   F   F
  0.0975848181845824  0.7057088826736400  0.7248165624152123   T   T   T
  0.7426698913765781  0.0287375957983284  0.7367924826379025   T   T   T
 
  0.00000000E+00  0.00000000E+00  0.00000000E+00
  0.00000000E+00  0.00000000E+00  0.00000000E+00
  0.00000000E+00  0.00000000E+00  0.00000000E+00
  0.00000000E+00  0.00000000E+00  0.00000000E+00
  0.00000000E+00  0.00000000E+00  0.00000000E+00
  0.00000000E+00  0.00000000E+00  0.00000000E+00
  0.00000000E+00  0.00000000E+00  0.00000000E+00
  0.00000000E+00  0.00000000E+00  0.00000000E+00
  0.00000000E+00  0.00000000E+00  0.00000000E+00
  0.00000000E+00  0.00000000E+00  0.00000000E+00
  0.00000000E+00  0.00000000E+00  0.00000000E+00
  0.00000000E+00  0.00000000E+00  0.00000000E+00
  0.00000000E+00  0.00000000E+00  0.00000000E+00
  0.00000000E+00  0.00000000E+00  0.00000000E+00
  0.00000000E+00  0.00000000E+00  0.00000000E+00
  0.00000000E+00  0.00000000E+00  0.00000000E+00
  0.00000000E+00  0.00000000E+00  0.00000000E+00
  0.00000000E+00  0.00000000E+00  0.00000000E+00
  0.00000000E+00  0.00000000E+00  0.00000000E+00
  0.00000000E+00  0.00000000E+00  0.00000000E+00
  0.00000000E+00  0.00000000E+00  0.00000000E+00
  0.00000000E+00  0.00000000E+00  0.00000000E+00
  0.00000000E+00  0.00000000E+00  0.00000000E+00
  0.00000000E+00  0.00000000E+00  0.00000000E+00
  0.00000000E+00  0.00000000E+00  0.00000000E+00
  0.00000000E+00  0.00000000E+00  0.00000000E+00
  0.00000000E+00  0.00000000E+00  0.00000000E+00
  0.00000000E+00  0.00000000E+00  0.00000000E+00
  0.00000000E+00  0.00000000E+00  0.00000000E+00
  0.00000000E+00  0.00000000E+00  0.00000000E+00
  0.00000000E+00  0.00000000E+00  0.00000000E+00
  0.00000000E+00  0.00000000E+00  0.00000000E+00
  0.00000000E+00  0.00000000E+00  0.00000000E+00
  0.00000000E+00  0.00000000E+00  0.00000000E+00
  0.00000000E+00  0.00000000E+00  0.00000000E+00
  0.00000000E+00  0.00000000E+00  0.00000000E+00
  0.00000000E+00  0.00000000E+00  0.00000000E+00
  0.00000000E+00  0.00000000E+00  0.00000000E+00
  0.00000000E+00  0.00000000E+00  0.00000000E+00
  0.00000000E+00  0.00000000E+00  0.00000000E+00
  0.00000000E+00  0.00000000E+00  0.00000000E+00
  0.00000000E+00  0.00000000E+00  0.00000000E+00
  0.00000000E+00  0.00000000E+00  0.00000000E+00
  0.00000000E+00  0.00000000E+00  0.00000000E+00
  0.00000000E+00  0.00000000E+00  0.00000000E+00
  0.00000000E+00  0.00000000E+00  0.00000000E+00
  0.00000000E+00  0.00000000E+00  0.00000000E+00
  0.00000000E+00  0.00000000E+00  0.00000000E+00
  0.00000000E+00  0.00000000E+00  0.00000000E+00
  0.00000000E+00  0.00000000E+00  0.00000000E+00
  0.00000000E+00  0.00000000E+00  0.00000000E+00
  0.00000000E+00  0.00000000E+00  0.00000000E+00
  0.00000000E+00  0.00000000E+00  0.00000000E+00
  0.00000000E+00  0.00000000E+00  0.00000000E+00
  0.00000000E+00  0.00000000E+00  0.00000000E+00
  0.00000000E+00  0.00000000E+00  0.00000000E+00
  0.00000000E+00  0.00000000E+00  0.00000000E+00
  0.00000000E+00  0.00000000E+00  0.00000000E+00
  0.00000000E+00  0.00000000E+00  0.00000000E+00
  0.00000000E+00  0.00000000E+00  0.00000000E+00
  0.00000000E+00  0.00000000E+00  0.00000000E+00
  0.00000000E+00  0.00000000E+00  0.00000000E+00
  0.00000000E+00  0.00000000E+00  0.00000000E+00
  0.00000000E+00  0.00000000E+00  0.00000000E+00
  0.00000000E+00  0.00000000E+00  0.00000000E+00
  0.00000000E+00  0.00000000E+00  0.00000000E+00
  0.00000000E+00  0.00000000E+00  0.00000000E+00
  0.00000000E+00  0.00000000E+00  0.00000000E+00
  0.00000000E+00  0.00000000E+00  0.00000000E+00
  0.00000000E+00  0.00000000E+00  0.00000000E+00
  0.00000000E+00  0.00000000E+00  0.00000000E+00
  0.00000000E+00  0.00000000E+00  0.00000000E+00
  0.00000000E+00  0.00000000E+00  0.00000000E+00
  0.00000000E+00  0.00000000E+00  0.00000000E+00
  0.00000000E+00  0.00000000E+00  0.00000000E+00
  0.00000000E+00  0.00000000E+00  0.00000000E+00
  0.00000000E+00  0.00000000E+00  0.00000000E+00
  0.00000000E+00  0.00000000E+00  0.00000000E+00
  0.00000000E+00  0.00000000E+00  0.00000000E+00
  0.00000000E+00  0.00000000E+00  0.00000000E+00
  0.00000000E+00  0.00000000E+00  0.00000000E+00
  0.00000000E+00  0.00000000E+00  0.00000000E+00
  0.00000000E+00  0.00000000E+00  0.00000000E+00
  0.00000000E+00  0.00000000E+00  0.00000000E+00
