Na2 Co96 S4                             
   1.00000000000000     
    10.0644778521749121    0.0000000000000000    0.0000000000000006
     2.5161194630437280    8.9321617047238462   -2.3887341805488451
     0.0000000000000000    0.0000000000000000   29.8399143425614533
   Na   Co   S 
     2    96     4
Selective dynamics
Direct
  0.4254121694127626  0.0549388801310100  0.7763698220461113   T   T   T
  0.2091369954582498  0.4840303244355849  0.7767475667950093   T   T   T
  0.1319444444444429  0.4722222222222214  0.3388888888888886   F   F   F
  0.1319444444444429  0.9722222222222214  0.3388888888888886   F   F   F
  0.3819444444444429  0.4722222222222214  0.3388888888888886   F   F   F
  0.3819444444444429  0.9722222222222214  0.3388888888888886   F   F   F
  0.6319444444444429  0.4722222222222214  0.3388888888888886   F   F   F
  0.6319444444444429  0.9722222222222214  0.3388888888888886   F   F   F
  0.8819444444444429  0.4722222222222214  0.3388888888888886   F   F   F
  0.8819444444444429  0.9722222222222214  0.3388888888888886   F   F   F
  0.2152777777777786  0.1388888888888928  0.4055555555555586   F   F   F
  0.2152777777777786  0.6388888888888857  0.4055555555555586   F   F   F
  0.4652777777777786  0.1388888888888928  0.4055555555555586   F   F   F
  0.4652777777777786  0.6388888888888857  0.4055555555555586   F   F   F
  0.7152777777777786  0.1388888888888928  0.4055555555555586   F   F   F
  0.7152777777777786  0.6388888888888857  0.4055555555555586   F   F   F
  0.9652777777777786  0.1388888888888928  0.4055555555555586   F   F   F
  0.9652777777777786  0.6388888888888857  0.4055555555555586   F   F   F
  0.0486111111111143  0.3055555555555571  0.4722222222222214   F   F   F
  0.0486111111111143  0.8055555555555571  0.4722222222222214   F   F   F
  0.2986111111111143  0.3055555555555571  0.4722222222222214   F   F   F
  0.2986111111111143  0.8055555555555571  0.4722222222222214   F   F   F
  0.5486111111111143  0.3055555555555571  0.4722222222222214   F   F   F
  0.5486111111111143  0.8055555555555571  0.4722222222222214   F   F   F
  0.7986111111111143  0.3055555555555571  0.4722222222222214   F   F   F
  0.7986111111111143  0.8055555555555571  0.4722222222222214   F   F   F
  0.0347222222222214  0.3611111111111143  0.3944444444444457   F   F   F
  0.0347222222222214  0.8611111111111143  0.3944444444444457   F   F   F
  0.2847222222222214  0.3611111111111143  0.3944444444444457   F   F   F
  0.2847222222222214  0.8611111111111143  0.3944444444444457   F   F   F
  0.5347222222222214  0.3611111111111143  0.3944444444444457   F   F   F
  0.5347222222222214  0.8611111111111143  0.3944444444444457   F   F   F
  0.7847222222222214  0.3611111111111143  0.3944444444444457   F   F   F
  0.7847222222222214  0.8611111111111143  0.3944444444444457   F   F   F
  0.1180555555555571  0.0277777777777786  0.4611111111111086   F   F   F
  0.1180555555555571  0.5277777777777786  0.4611111111111086   F   F   F
  0.3680555555555571  0.0277777777777786  0.4611111111111086   F   F   F
  0.3680555555555571  0.5277777777777786  0.4611111111111086   F   F   F
  0.6180555555555571  0.0277777777777786  0.4611111111111086   F   F   F
  0.6180555555555571  0.5277777777777786  0.4611111111111086   F   F   F
  0.8680555555555571  0.0277777777777786  0.4611111111111086   F   F   F
  0.8680555555555571  0.5277777777777786  0.4611111111111086   F   F   F
  0.2013888888888857  0.1944444444444429  0.3277777777777757   F   F   F
  0.2013888888888857  0.6944444444444429  0.3277777777777757   F   F   F
  0.4513888888888857  0.1944444444444429  0.3277777777777757   F   F   F
  0.4513888888888857  0.6944444444444429  0.3277777777777757   F   F   F
  0.7013888888888857  0.1944444444444429  0.3277777777777757   F   F   F
  0.7013888888888857  0.6944444444444429  0.3277777777777757   F   F   F
  0.9513888888888857  0.1944444444444429  0.3277777777777757   F   F   F
  0.9513888888888857  0.6944444444444429  0.3277777777777757   F   F   F
  0.1319444444444429  0.4722222222222214  0.5388888888888914   F   F   F
  0.1319444444444429  0.9722222222222214  0.5388888888888914   F   F   F
  0.3819444444444429  0.4722222222222214  0.5388888888888914   F   F   F
  0.3819444444444429  0.9722222222222214  0.5388888888888914   F   F   F
  0.6319444444444429  0.4722222222222214  0.5388888888888914   F   F   F
  0.6319444444444429  0.9722222222222214  0.5388888888888914   F   F   F
  0.8819444444444429  0.4722222222222214  0.5388888888888914   F   F   F
  0.8819444444444429  0.9722222222222214  0.5388888888888914   F   F   F
  0.2169097178364533  0.1406917219330725  0.6056230000129105   T   T   T
  0.2143285372209870  0.6384636871515470  0.6044662391603965   T   T   T
  0.4638962654354509  0.1399845749261929  0.6064433150847659   T   T   T
  0.4655072769155855  0.6377743868803447  0.6046055794164842   T   T   T
  0.7127223320921270  0.1374429819946019  0.6052530044713599   T   T   T
  0.7168448119180292  0.6393811378116725  0.6042546118740222   T   T   T
  0.9672330724203391  0.1386637880887948  0.6052931610926549   T   T   T
  0.9658482350391157  0.6380686746353165  0.6049884848552379   T   T   T
  0.0432732059787036  0.3167885136542291  0.6705107507338084   T   T   T
  0.0430561154401305  0.7995699675395381  0.6695811858742549   T   T   T
  0.3042557699179433  0.3066498862363055  0.6765978252192691   T   T   T
  0.2970970203337690  0.7963204461109348  0.6695933515604540   T   T   T
  0.5628460844698310  0.3229710562424413  0.6689593505026413   T   T   T
  0.5478767149614330  0.8059138238724486  0.6692313029005458   T   T   T
  0.8051769666522617  0.3040965961540863  0.6698851307069812   T   T   T
  0.7938159253118435  0.8068620193129563  0.6697037725050661   T   T   T
  0.0347222222222214  0.3611111111111143  0.5944444444444414   F   F   F
  0.0347222222222214  0.8611111111111143  0.5944444444444414   F   F   F
  0.2847222222222214  0.3611111111111143  0.5944444444444414   F   F   F
  0.2847222222222214  0.8611111111111143  0.5944444444444414   F   F   F
  0.5347222222222214  0.3611111111111143  0.5944444444444414   F   F   F
  0.5347222222222214  0.8611111111111143  0.5944444444444414   F   F   F
  0.7847222222222214  0.3611111111111143  0.5944444444444414   F   F   F
  0.7847222222222214  0.8611111111111143  0.5944444444444414   F   F   F
  0.1124844842980635  0.0214033356940519  0.6604156914152549   T   T   T
  0.1250883837601807  0.5276615400966754  0.6602747724630385   T   T   T
  0.3653544754024509  0.0179765390894242  0.6617108142307252   T   T   T
  0.3672560422042980  0.5287265426803005  0.6599062620612507   T   T   T
  0.6153164453157678  0.0358177523242984  0.6654340006935535   T   T   T
  0.6213234547903458  0.5383232579621887  0.6600139542207553   T   T   T
  0.8652566263486182  0.0284582599000591  0.6588021988105749   T   T   T
  0.8703496142520742  0.5327060616135918  0.6596620908044598   T   T   T
  0.2013888888888857  0.1944444444444429  0.5277777777777786   F   F   F
  0.2013888888888857  0.6944444444444429  0.5277777777777786   F   F   F
  0.4513888888888857  0.1944444444444429  0.5277777777777786   F   F   F
  0.4513888888888857  0.6944444444444429  0.5277777777777786   F   F   F
  0.7013888888888857  0.1944444444444429  0.5277777777777786   F   F   F
  0.7013888888888857  0.6944444444444429  0.5277777777777786   F   F   F
  0.9513888888888857  0.1944444444444429  0.5277777777777786   F   F   F
  0.9513888888888857  0.6944444444444429  0.5277777777777786   F   F   F
  0.1500648673202969  0.2193579851168186  0.7841326711266581   T   T   T
  0.4862413399948450  0.2409759456199543  0.7204880987107780   T   T   T
  0.4865990338969335  0.3358507208997146  0.7910920340837894   T   T   T
  0.1815475077827697  0.1875215691066180  0.7129283344404250   T   T   T
 
  0.00000000E+00  0.00000000E+00  0.00000000E+00
  0.00000000E+00  0.00000000E+00  0.00000000E+00
  0.00000000E+00  0.00000000E+00  0.00000000E+00
  0.00000000E+00  0.00000000E+00  0.00000000E+00
  0.00000000E+00  0.00000000E+00  0.00000000E+00
  0.00000000E+00  0.00000000E+00  0.00000000E+00
  0.00000000E+00  0.00000000E+00  0.00000000E+00
  0.00000000E+00  0.00000000E+00  0.00000000E+00
  0.00000000E+00  0.00000000E+00  0.00000000E+00
  0.00000000E+00  0.00000000E+00  0.00000000E+00
  0.00000000E+00  0.00000000E+00  0.00000000E+00
  0.00000000E+00  0.00000000E+00  0.00000000E+00
  0.00000000E+00  0.00000000E+00  0.00000000E+00
  0.00000000E+00  0.00000000E+00  0.00000000E+00
  0.00000000E+00  0.00000000E+00  0.00000000E+00
  0.00000000E+00  0.00000000E+00  0.00000000E+00
  0.00000000E+00  0.00000000E+00  0.00000000E+00
  0.00000000E+00  0.00000000E+00  0.00000000E+00
  0.00000000E+00  0.00000000E+00  0.00000000E+00
  0.00000000E+00  0.00000000E+00  0.00000000E+00
  0.00000000E+00  0.00000000E+00  0.00000000E+00
  0.00000000E+00  0.00000000E+00  0.00000000E+00
  0.00000000E+00  0.00000000E+00  0.00000000E+00
  0.00000000E+00  0.00000000E+00  0.00000000E+00
  0.00000000E+00  0.00000000E+00  0.00000000E+00
  0.00000000E+00  0.00000000E+00  0.00000000E+00
  0.00000000E+00  0.00000000E+00  0.00000000E+00
  0.00000000E+00  0.00000000E+00  0.00000000E+00
  0.00000000E+00  0.00000000E+00  0.00000000E+00
  0.00000000E+00  0.00000000E+00  0.00000000E+00
  0.00000000E+00  0.00000000E+00  0.00000000E+00
  0.00000000E+00  0.00000000E+00  0.00000000E+00
  0.00000000E+00  0.00000000E+00  0.00000000E+00
  0.00000000E+00  0.00000000E+00  0.00000000E+00
  0.00000000E+00  0.00000000E+00  0.00000000E+00
  0.00000000E+00  0.00000000E+00  0.00000000E+00
  0.00000000E+00  0.00000000E+00  0.00000000E+00
  0.00000000E+00  0.00000000E+00  0.00000000E+00
  0.00000000E+00  0.00000000E+00  0.00000000E+00
  0.00000000E+00  0.00000000E+00  0.00000000E+00
  0.00000000E+00  0.00000000E+00  0.00000000E+00
  0.00000000E+00  0.00000000E+00  0.00000000E+00
  0.00000000E+00  0.00000000E+00  0.00000000E+00
  0.00000000E+00  0.00000000E+00  0.00000000E+00
  0.00000000E+00  0.00000000E+00  0.00000000E+00
  0.00000000E+00  0.00000000E+00  0.00000000E+00
  0.00000000E+00  0.00000000E+00  0.00000000E+00
  0.00000000E+00  0.00000000E+00  0.00000000E+00
  0.00000000E+00  0.00000000E+00  0.00000000E+00
  0.00000000E+00  0.00000000E+00  0.00000000E+00
  0.00000000E+00  0.00000000E+00  0.00000000E+00
  0.00000000E+00  0.00000000E+00  0.00000000E+00
  0.00000000E+00  0.00000000E+00  0.00000000E+00
  0.00000000E+00  0.00000000E+00  0.00000000E+00
  0.00000000E+00  0.00000000E+00  0.00000000E+00
  0.00000000E+00  0.00000000E+00  0.00000000E+00
  0.00000000E+00  0.00000000E+00  0.00000000E+00
  0.00000000E+00  0.00000000E+00  0.00000000E+00
  0.00000000E+00  0.00000000E+00  0.00000000E+00
  0.00000000E+00  0.00000000E+00  0.00000000E+00
  0.00000000E+00  0.00000000E+00  0.00000000E+00
  0.00000000E+00  0.00000000E+00  0.00000000E+00
  0.00000000E+00  0.00000000E+00  0.00000000E+00
  0.00000000E+00  0.00000000E+00  0.00000000E+00
  0.00000000E+00  0.00000000E+00  0.00000000E+00
  0.00000000E+00  0.00000000E+00  0.00000000E+00
  0.00000000E+00  0.00000000E+00  0.00000000E+00
  0.00000000E+00  0.00000000E+00  0.00000000E+00
  0.00000000E+00  0.00000000E+00  0.00000000E+00
  0.00000000E+00  0.00000000E+00  0.00000000E+00
  0.00000000E+00  0.00000000E+00  0.00000000E+00
  0.00000000E+00  0.00000000E+00  0.00000000E+00
  0.00000000E+00  0.00000000E+00  0.00000000E+00
  0.00000000E+00  0.00000000E+00  0.00000000E+00
  0.00000000E+00  0.00000000E+00  0.00000000E+00
  0.00000000E+00  0.00000000E+00  0.00000000E+00
  0.00000000E+00  0.00000000E+00  0.00000000E+00
  0.00000000E+00  0.00000000E+00  0.00000000E+00
  0.00000000E+00  0.00000000E+00  0.00000000E+00
  0.00000000E+00  0.00000000E+00  0.00000000E+00
  0.00000000E+00  0.00000000E+00  0.00000000E+00
  0.00000000E+00  0.00000000E+00  0.00000000E+00
  0.00000000E+00  0.00000000E+00  0.00000000E+00
  0.00000000E+00  0.00000000E+00  0.00000000E+00
  0.00000000E+00  0.00000000E+00  0.00000000E+00
  0.00000000E+00  0.00000000E+00  0.00000000E+00
  0.00000000E+00  0.00000000E+00  0.00000000E+00
  0.00000000E+00  0.00000000E+00  0.00000000E+00
  0.00000000E+00  0.00000000E+00  0.00000000E+00
  0.00000000E+00  0.00000000E+00  0.00000000E+00
  0.00000000E+00  0.00000000E+00  0.00000000E+00
  0.00000000E+00  0.00000000E+00  0.00000000E+00
  0.00000000E+00  0.00000000E+00  0.00000000E+00
  0.00000000E+00  0.00000000E+00  0.00000000E+00
  0.00000000E+00  0.00000000E+00  0.00000000E+00
  0.00000000E+00  0.00000000E+00  0.00000000E+00
  0.00000000E+00  0.00000000E+00  0.00000000E+00
  0.00000000E+00  0.00000000E+00  0.00000000E+00
  0.00000000E+00  0.00000000E+00  0.00000000E+00
  0.00000000E+00  0.00000000E+00  0.00000000E+00
  0.00000000E+00  0.00000000E+00  0.00000000E+00
  0.00000000E+00  0.00000000E+00  0.00000000E+00
