K4 V16 O39                              
   1.00000000000000     
     3.7493527078566107    0.0000000000000000    0.0000000000000002
    -0.0000000000000007   12.1315664998272048   -0.0591733561648585
    -0.0000000000000000   -0.1505126774244120   16.5947202679416499
   K    V    O 
     4    16    39
Direct
 -0.0000000000000000  0.5511072624106466  0.2306943678911815
 -0.0000000000000000  0.3666849541371880  0.7520211976842139
  0.5000000000000000  0.0579827806569102  0.2530276287814418
  0.5000000000000000  0.9114545259364147  0.7530296980576180
 -0.0000000000000000  0.9326803437846538  0.4033144475107252
  0.0000000000000000  0.0757842780943992  0.5602245484789272
 -0.0000000000000000  0.9312125874662300  0.1075673696227432
 -0.0000000000000000  0.0552890205264365  0.9355191330296846
  0.5000000000000000  0.4276764733537122  0.4057809446602405
  0.5000000000000000  0.5794945412105991  0.5430873236742948
  0.5000000000000000  0.4282733417418692  0.0803984968179543
  0.5000000000000000  0.5648472994626830  0.9354642855449041
 -0.0000000000000000  0.2361166400544137  0.3936620077666205
 -0.0000000000000000  0.7773903720319701  0.5585092581576805
 -0.0000000000000000  0.2359203271329265  0.0934426774337180
  0.0000000000000000  0.7651203484949173  0.9388271916308059
  0.5000000000000000  0.7375574871941323  0.3933448213368548
  0.5000000000000000  0.2704950061872090  0.5574899893022536
  0.5000000000000000  0.7353765480499226  0.0945798801549285
  0.5000000000000000  0.2517808688913415  0.9344849165669830
 -0.0000000000000000  0.9367485814479792  0.5184066199998536
 -0.0000000000000000  0.0752668886321892  0.0944183545337842
 -0.0000000000000000  0.9228942478823010  0.9761045136824825
  0.5000000000000000  0.5797758341159164  0.4331671568097266
  0.5000000000000000  0.4281669624276779  0.5349694118184340
  0.5000000000000000  0.5733444231868231  0.0634774390425738
  0.5000000000000000  0.4198184013708962  0.9540691648855721
 -0.0000000000000000  0.2332007528292799  0.5266378233011902
 -0.0000000000000000  0.7709192083068620  0.4149074644587549
  0.0000000000000000  0.2189535661731662  0.9666410501883840
 -0.0000000000000000  0.7644969643355040  0.0792864197603443
  0.5000000000000000  0.7472731738075773  0.5260202776330332
  0.5000000000000000  0.2676043051204761  0.4159327411100516
  0.5000000000000000  0.7353135094491612  0.9710397812368449
  0.5000000000000000  0.2602223881082918  0.0686055096833847
 -0.0000000000000000  0.2025003068448747  0.2765341877776131
  0.0000000000000000  0.8156763247137985  0.6525612121085907
 -0.0000000000000000  0.2537627064200716  0.2018255562603797
 -0.0000000000000000  0.7918523716737443  0.8429444235139606
  0.5000000000000000  0.6847784844261429  0.2820774267860872
  0.5000000000000000  0.2837684898883013  0.6551038641004642
  0.5000000000000000  0.7223559654260790  0.2025564199700618
  0.5000000000000000  0.2655335389078792  0.8368609994926980
 -0.0000000000000000  0.4034928185188698  0.4134184971959024
 -0.0000000000000000  0.6098425078873212  0.5666458968690973
 -0.0000000000000000  0.3938799455664732  0.0708511773662802
 -0.0000000000000000  0.6017190711775010  0.9439466885127633
  0.5000000000000000  0.9031541274417894  0.3767109005398236
  0.5000000000000000  0.1049023090996562  0.5430222007437386
  0.5000000000000000  0.8972827284123602  0.0939909532849500
  0.5000000000000000  0.0897123008540668  0.9491811275626901
 -0.0000000000000000  0.0741131351673139  0.3930119279221619
 -0.0000000000000000  0.0593861222053345  0.6557082338776233
 -0.0000000000000000  0.9221634250021311  0.2065589783046683
 -0.0000000000000000  0.0356339239432449  0.8392793386151551
  0.5000000000000000  0.4577780441361559  0.3120424678920886
  0.5000000000000000  0.5366623071124105  0.7548752282002512
  0.5000000000000000  0.4240212266123714  0.1771427385628290
  0.5000000000000000  0.5596116445493973  0.8315856322919374
 
  0.00000000E+00  0.00000000E+00  0.00000000E+00
  0.00000000E+00  0.00000000E+00  0.00000000E+00
  0.00000000E+00  0.00000000E+00  0.00000000E+00
  0.00000000E+00  0.00000000E+00  0.00000000E+00
  0.00000000E+00  0.00000000E+00  0.00000000E+00
  0.00000000E+00  0.00000000E+00  0.00000000E+00
  0.00000000E+00  0.00000000E+00  0.00000000E+00
  0.00000000E+00  0.00000000E+00  0.00000000E+00
  0.00000000E+00  0.00000000E+00  0.00000000E+00
  0.00000000E+00  0.00000000E+00  0.00000000E+00
  0.00000000E+00  0.00000000E+00  0.00000000E+00
  0.00000000E+00  0.00000000E+00  0.00000000E+00
  0.00000000E+00  0.00000000E+00  0.00000000E+00
  0.00000000E+00  0.00000000E+00  0.00000000E+00
  0.00000000E+00  0.00000000E+00  0.00000000E+00
  0.00000000E+00  0.00000000E+00  0.00000000E+00
  0.00000000E+00  0.00000000E+00  0.00000000E+00
  0.00000000E+00  0.00000000E+00  0.00000000E+00
  0.00000000E+00  0.00000000E+00  0.00000000E+00
  0.00000000E+00  0.00000000E+00  0.00000000E+00
  0.00000000E+00  0.00000000E+00  0.00000000E+00
  0.00000000E+00  0.00000000E+00  0.00000000E+00
  0.00000000E+00  0.00000000E+00  0.00000000E+00
  0.00000000E+00  0.00000000E+00  0.00000000E+00
  0.00000000E+00  0.00000000E+00  0.00000000E+00
  0.00000000E+00  0.00000000E+00  0.00000000E+00
  0.00000000E+00  0.00000000E+00  0.00000000E+00
  0.00000000E+00  0.00000000E+00  0.00000000E+00
  0.00000000E+00  0.00000000E+00  0.00000000E+00
  0.00000000E+00  0.00000000E+00  0.00000000E+00
  0.00000000E+00  0.00000000E+00  0.00000000E+00
  0.00000000E+00  0.00000000E+00  0.00000000E+00
  0.00000000E+00  0.00000000E+00  0.00000000E+00
  0.00000000E+00  0.00000000E+00  0.00000000E+00
  0.00000000E+00  0.00000000E+00  0.00000000E+00
  0.00000000E+00  0.00000000E+00  0.00000000E+00
  0.00000000E+00  0.00000000E+00  0.00000000E+00
  0.00000000E+00  0.00000000E+00  0.00000000E+00
  0.00000000E+00  0.00000000E+00  0.00000000E+00
  0.00000000E+00  0.00000000E+00  0.00000000E+00
  0.00000000E+00  0.00000000E+00  0.00000000E+00
  0.00000000E+00  0.00000000E+00  0.00000000E+00
  0.00000000E+00  0.00000000E+00  0.00000000E+00
  0.00000000E+00  0.00000000E+00  0.00000000E+00
  0.00000000E+00  0.00000000E+00  0.00000000E+00
  0.00000000E+00  0.00000000E+00  0.00000000E+00
  0.00000000E+00  0.00000000E+00  0.00000000E+00
  0.00000000E+00  0.00000000E+00  0.00000000E+00
  0.00000000E+00  0.00000000E+00  0.00000000E+00
  0.00000000E+00  0.00000000E+00  0.00000000E+00
  0.00000000E+00  0.00000000E+00  0.00000000E+00
  0.00000000E+00  0.00000000E+00  0.00000000E+00
  0.00000000E+00  0.00000000E+00  0.00000000E+00
  0.00000000E+00  0.00000000E+00  0.00000000E+00
  0.00000000E+00  0.00000000E+00  0.00000000E+00
  0.00000000E+00  0.00000000E+00  0.00000000E+00
  0.00000000E+00  0.00000000E+00  0.00000000E+00
  0.00000000E+00  0.00000000E+00  0.00000000E+00
  0.00000000E+00  0.00000000E+00  0.00000000E+00
