Na2 Mn20 Fe60 S2                        
   1.00000000000000     
     9.9108674400000005    0.0000000000000000    0.0000000000000006
     2.4777168599999966    8.9838207779895107    0.5838504400220752
     0.0000000000000000    0.0000000000000000   28.3539106363174263
   Na   Mn   Fe   S 
     2    20    60     2
Selective dynamics
Direct
 -0.0574032215703509  0.3128164222083973  0.7128314394062036   T   T   T
  0.6542177073409290  0.8783648727785267  0.7229540484609446   T   T   T
  0.3083333333333371  0.7666666666666657  0.3944444444444457   F   F   F
  0.8083333333333371  0.7666666666666657  0.3944444444444457   F   F   F
  0.4083333333333314  0.3666666666666671  0.4611111111111086   F   F   F
  0.9083333333333314  0.3666666666666671  0.4611111111111086   F   F   F
  0.0083333333333329  0.9666666666666686  0.5277777777777786   F   F   F
  0.5083333333333329  0.9666666666666686  0.5277777777777786   F   F   F
  0.1083333333333343  0.5666666666666700  0.5944444444444414   F   F   F
  0.6083333333333343  0.5666666666666700  0.5944444444444414   F   F   F
  0.2334455412760328  0.0668847160171072  0.6691041549444843   T   T   T
  0.7349903239750647  0.1379393713304942  0.6656893765295979   T   T   T
  0.4916666666666671  0.0333333333333314  0.4055555555555586   F   F   F
  0.9916666666666671  0.0333333333333314  0.4055555555555586   F   F   F
  0.0916666666666615  0.6333333333333329  0.4722222222222214   F   F   F
  0.5916666666666686  0.6333333333333329  0.4722222222222214   F   F   F
  0.1916666666666629  0.2333333333333343  0.5388888888888914   F   F   F
  0.6916666666666629  0.2333333333333343  0.5388888888888914   F   F   F
  0.2898745822763588  0.8356475188416895  0.6085917292011140   T   T   T
  0.7876592785066471  0.8345340845690348  0.6105065327498022   T   T   T
  0.3916666666666657  0.4333333333333300  0.3388888888888886   F   F   F
  0.8916666666666657  0.4333333333333300  0.3388888888888886   F   F   F
  0.3943013584394279  0.9326746603901412  0.3384497735934318   F   F   F
  0.8943013584394279  0.9326746603901412  0.3384497735934318   F   F   F
  0.4943013584394222  0.5326746603901427  0.4051164402600946   F   F   F
  0.9943013584394222  0.5326746603901427  0.4051164402600946   F   F   F
  0.0943013584394237  0.1326746603901441  0.4717831069267646   F   F   F
  0.5943013584394237  0.1326746603901441  0.4717831069267646   F   F   F
  0.1943013584394251  0.7326746603901455  0.5384497735934275   F   F   F
  0.6943013584394251  0.7326746603901455  0.5384497735934275   F   F   F
  0.2966466329464078  0.3299188728709044  0.6124226341344052   T   T   T
  0.7986160309723785  0.3327507943882808  0.6099821816700387   T   T   T
  0.2413373301950728  0.0346506792197161  0.4064337861464722   F   F   F
  0.7413373301950728  0.0346506792197161  0.4064337861464722   F   F   F
  0.3413373301950671  0.6346506792197104  0.4731004528131422   F   F   F
  0.8413373301950671  0.6346506792197104  0.4731004528131422   F   F   F
  0.4413373301950685  0.2346506792197118  0.5397671194798122   F   F   F
  0.9413373301950685  0.2346506792197118  0.5397671194798122   F   F   F
  0.0386028491988409  0.8329197372213415  0.6067555460923105   T   T   T
  0.5414402934073735  0.8310652266566884  0.6121011175295001   T   T   T
  0.1413373301950713  0.4346506792197147  0.3397671194798093   F   F   F
  0.6413373301950713  0.4346506792197147  0.3397671194798093   F   F   F
  0.1393613113654979  0.9326746603901412  0.3384497735934318   F   F   F
  0.6393613113654979  0.9326746603901412  0.3384497735934318   F   F   F
  0.2393613113654993  0.5326746603901427  0.4051164402600946   F   F   F
  0.7393613113654993  0.5326746603901427  0.4051164402600946   F   F   F
  0.3393613113655007  0.1326746603901441  0.4717831069267646   F   F   F
  0.8393613113655007  0.1326746603901441  0.4717831069267646   F   F   F
  0.4393613113655022  0.7326746603901455  0.5384497735934275   F   F   F
  0.9393613113655022  0.7326746603901455  0.5384497735934275   F   F   F
  0.0395334700609480  0.3259830082685425  0.6105289356845857   T   T   T
  0.5396949068365218  0.3325174579938808  0.6099139353098961   T   T   T
  0.4056986415605763  0.8673253396098559  0.4615502264065725   F   F   F
  0.9056986415605763  0.8673253396098559  0.4615502264065725   F   F   F
  0.0056986415605778  0.4673253396098573  0.5282168930732354   F   F   F
  0.5056986415605778  0.4673253396098573  0.5282168930732354   F   F   F
  0.1056986415605721  0.0673253396098588  0.5948835597399054   F   F   F
  0.6056986415605721  0.0673253396098588  0.5948835597399054   F   F   F
  0.2083339320904870  0.6463803113488896  0.6633237050009584   T   T   T
  0.7188397070317702  0.6203843006953873  0.6608816866887611   T   T   T
  0.3056986415605749  0.2673253396098545  0.3948835597399025   F   F   F
  0.8056986415605749  0.2673253396098545  0.3948835597399025   F   F   F
  0.0586626698049315  0.7653493207802882  0.3935662138535250   F   F   F
  0.5586626698049315  0.7653493207802882  0.3935662138535250   F   F   F
  0.1586626698049329  0.3653493207802896  0.4602328805201878   F   F   F
  0.6586626698049329  0.3653493207802896  0.4602328805201878   F   F   F
  0.2586626698049272  0.9653493207802839  0.5268995471868578   F   F   F
  0.7586626698049272  0.9653493207802839  0.5268995471868578   F   F   F
  0.3586626698049287  0.5653493207802853  0.5935662138535278   F   F   F
  0.8586626698049287  0.5653493207802853  0.5935662138535278   F   F   F
  0.4675125951825753  0.1476744283499221  0.6600010998365790   T   T   T
  0.0203749604315449 -0.0821504986084849  0.6828608364101745   T   T   T
  0.1606386886344993  0.8673253396098559  0.4615502264065725   F   F   F
  0.6606386886344993  0.8673253396098559  0.4615502264065725   F   F   F
  0.2606386886345007  0.4673253396098573  0.5282168930732354   F   F   F
  0.7606386886345007  0.4673253396098573  0.5282168930732354   F   F   F
  0.3606386886345021  0.0673253396098588  0.5948835597399054   F   F   F
  0.8606386886345021  0.0673253396098588  0.5948835597399054   F   F   F
  0.4539662086171064  0.6540941409116966  0.6640428194200767   T   T   T
  0.9589345892193386  0.6562509764848528  0.6636069781557529   T   T   T
  0.0606386886344978  0.2673253396098545  0.3948835597399025   F   F   F
  0.5606386886344978  0.2673253396098545  0.3948835597399025   F   F   F
  0.2663121199041608  0.8253887426300784  0.7073540038149257   T   T   T
  0.8574663257223092  0.0486024073368318  0.7335307533290910   T   T   T
 
  0.00000000E+00  0.00000000E+00  0.00000000E+00
  0.00000000E+00  0.00000000E+00  0.00000000E+00
  0.00000000E+00  0.00000000E+00  0.00000000E+00
  0.00000000E+00  0.00000000E+00  0.00000000E+00
  0.00000000E+00  0.00000000E+00  0.00000000E+00
  0.00000000E+00  0.00000000E+00  0.00000000E+00
  0.00000000E+00  0.00000000E+00  0.00000000E+00
  0.00000000E+00  0.00000000E+00  0.00000000E+00
  0.00000000E+00  0.00000000E+00  0.00000000E+00
  0.00000000E+00  0.00000000E+00  0.00000000E+00
  0.00000000E+00  0.00000000E+00  0.00000000E+00
  0.00000000E+00  0.00000000E+00  0.00000000E+00
  0.00000000E+00  0.00000000E+00  0.00000000E+00
  0.00000000E+00  0.00000000E+00  0.00000000E+00
  0.00000000E+00  0.00000000E+00  0.00000000E+00
  0.00000000E+00  0.00000000E+00  0.00000000E+00
  0.00000000E+00  0.00000000E+00  0.00000000E+00
  0.00000000E+00  0.00000000E+00  0.00000000E+00
  0.00000000E+00  0.00000000E+00  0.00000000E+00
  0.00000000E+00  0.00000000E+00  0.00000000E+00
  0.00000000E+00  0.00000000E+00  0.00000000E+00
  0.00000000E+00  0.00000000E+00  0.00000000E+00
  0.00000000E+00  0.00000000E+00  0.00000000E+00
  0.00000000E+00  0.00000000E+00  0.00000000E+00
  0.00000000E+00  0.00000000E+00  0.00000000E+00
  0.00000000E+00  0.00000000E+00  0.00000000E+00
  0.00000000E+00  0.00000000E+00  0.00000000E+00
  0.00000000E+00  0.00000000E+00  0.00000000E+00
  0.00000000E+00  0.00000000E+00  0.00000000E+00
  0.00000000E+00  0.00000000E+00  0.00000000E+00
  0.00000000E+00  0.00000000E+00  0.00000000E+00
  0.00000000E+00  0.00000000E+00  0.00000000E+00
  0.00000000E+00  0.00000000E+00  0.00000000E+00
  0.00000000E+00  0.00000000E+00  0.00000000E+00
  0.00000000E+00  0.00000000E+00  0.00000000E+00
  0.00000000E+00  0.00000000E+00  0.00000000E+00
  0.00000000E+00  0.00000000E+00  0.00000000E+00
  0.00000000E+00  0.00000000E+00  0.00000000E+00
  0.00000000E+00  0.00000000E+00  0.00000000E+00
  0.00000000E+00  0.00000000E+00  0.00000000E+00
  0.00000000E+00  0.00000000E+00  0.00000000E+00
  0.00000000E+00  0.00000000E+00  0.00000000E+00
  0.00000000E+00  0.00000000E+00  0.00000000E+00
  0.00000000E+00  0.00000000E+00  0.00000000E+00
  0.00000000E+00  0.00000000E+00  0.00000000E+00
  0.00000000E+00  0.00000000E+00  0.00000000E+00
  0.00000000E+00  0.00000000E+00  0.00000000E+00
  0.00000000E+00  0.00000000E+00  0.00000000E+00
  0.00000000E+00  0.00000000E+00  0.00000000E+00
  0.00000000E+00  0.00000000E+00  0.00000000E+00
  0.00000000E+00  0.00000000E+00  0.00000000E+00
  0.00000000E+00  0.00000000E+00  0.00000000E+00
  0.00000000E+00  0.00000000E+00  0.00000000E+00
  0.00000000E+00  0.00000000E+00  0.00000000E+00
  0.00000000E+00  0.00000000E+00  0.00000000E+00
  0.00000000E+00  0.00000000E+00  0.00000000E+00
  0.00000000E+00  0.00000000E+00  0.00000000E+00
  0.00000000E+00  0.00000000E+00  0.00000000E+00
  0.00000000E+00  0.00000000E+00  0.00000000E+00
  0.00000000E+00  0.00000000E+00  0.00000000E+00
  0.00000000E+00  0.00000000E+00  0.00000000E+00
  0.00000000E+00  0.00000000E+00  0.00000000E+00
  0.00000000E+00  0.00000000E+00  0.00000000E+00
  0.00000000E+00  0.00000000E+00  0.00000000E+00
  0.00000000E+00  0.00000000E+00  0.00000000E+00
  0.00000000E+00  0.00000000E+00  0.00000000E+00
  0.00000000E+00  0.00000000E+00  0.00000000E+00
  0.00000000E+00  0.00000000E+00  0.00000000E+00
  0.00000000E+00  0.00000000E+00  0.00000000E+00
  0.00000000E+00  0.00000000E+00  0.00000000E+00
  0.00000000E+00  0.00000000E+00  0.00000000E+00
  0.00000000E+00  0.00000000E+00  0.00000000E+00
  0.00000000E+00  0.00000000E+00  0.00000000E+00
  0.00000000E+00  0.00000000E+00  0.00000000E+00
  0.00000000E+00  0.00000000E+00  0.00000000E+00
  0.00000000E+00  0.00000000E+00  0.00000000E+00
  0.00000000E+00  0.00000000E+00  0.00000000E+00
  0.00000000E+00  0.00000000E+00  0.00000000E+00
  0.00000000E+00  0.00000000E+00  0.00000000E+00
  0.00000000E+00  0.00000000E+00  0.00000000E+00
  0.00000000E+00  0.00000000E+00  0.00000000E+00
  0.00000000E+00  0.00000000E+00  0.00000000E+00
  0.00000000E+00  0.00000000E+00  0.00000000E+00
  0.00000000E+00  0.00000000E+00  0.00000000E+00
