Na2 Fe80 Co48 S1                        
   1.00000000000000     
     9.9634609571490849    0.0000000000000000    0.0151289699723956
     3.3293508209972562    9.3783526600373399    0.0293803574974442
     0.0000000000000000    0.0000000000000000   32.5363995958672376
   Na   Fe   Co   S 
     2    80    48     1
Selective dynamics
Direct
  0.6981026927155175  0.0464685194798432  0.7976415186299901   T   T   T
  0.0491702733220378  0.3814474618961223  0.7948746445017436   T   T   T
  0.0019031400468169  0.0000712280936522  0.7198456720169338   T   T   T
  0.1250000000000000  0.6250000000000000  0.2812500000000000   F   F   F
  0.2500000000000000  0.2500000000000000  0.3437500000000000   F   F   F
  0.3750000000000000  0.8750000000000000  0.4062500000000000   F   F   F
  0.5000000000000000  0.5000000000000000  0.4687500000000000   F   F   F
  0.6250000000000000  0.1250000000000000  0.5312500000000000   F   F   F
  0.7500000000000000  0.7500000000000000  0.5937500000000000   F   F   F
  0.8733678192223927  0.3750195530585206  0.6556668525379984   T   T   T
  0.8750000000000000  0.1250000000000000  0.2812500000000000   F   F   F
  0.0000000000000000  0.7500000000000000  0.3437500000000000   F   F   F
  0.1250000000000000  0.3750000000000000  0.4062500000000000   F   F   F
  0.2500000000000000  0.0000000000000000  0.4687500000000000   F   F   F
  0.3750000000000000  0.6250000000000000  0.5312500000000000   F   F   F
  0.5000000000000000  0.2500000000000000  0.5937500000000000   F   F   F
  0.6257962445577244  0.8732007934530502  0.6559544364982839   T   T   T
  0.7523114342787610  0.4959303570318893  0.7192924246650269   T   T   T
  0.5000000000000000  0.2500000000000000  0.3437500000000000   F   F   F
  0.6250000000000000  0.8750000000000000  0.4062500000000000   F   F   F
  0.7500000000000000  0.5000000000000000  0.4687500000000000   F   F   F
  0.8750000000000000  0.1250000000000000  0.5312500000000000   F   F   F
  0.0000000000000000  0.7500000000000000  0.5937500000000000   F   F   F
  0.1241757233699140  0.3757712309823682  0.6555498757363141   T   T   T
  0.2543152640698965  0.0003897127741696  0.7220886865930877   T   T   T
  0.3750000000000000  0.6250000000000000  0.2812500000000000   F   F   F
  0.1249059120615001  0.8749059120615001  0.2812029560307536   F   F   F
  0.2499059120615001  0.4999059120615001  0.3437029560307536   F   F   F
  0.3749059120615001  0.1249059120615001  0.4062029560307536   F   F   F
  0.4999059120615001  0.7499059120615001  0.4687029560307536   F   F   F
  0.6249059120615001  0.3749059120615001  0.5312029560307465   F   F   F
  0.7499059120615001  0.9999059120615001  0.5937029560307536   F   F   F
  0.8748951754471560  0.6259338384469942  0.6557999340858486   T   T   T
  0.9945247888601040  0.2533168288341258  0.7168787658166162   T   T   T
  0.2500940879384999  0.0000940879384999  0.3437970439692464   F   F   F
  0.3750940879384999  0.6250940879384999  0.4062970439692464   F   F   F
  0.5000940879384999  0.2500940879384999  0.4687970439692464   F   F   F
  0.6250940879384999  0.8750940879384999  0.5312970439692464   F   F   F
  0.7500940879384999  0.5000940879384999  0.5937970439692464   F   F   F
  0.8760326106578736  0.1242010296135883  0.6564395556100253   T   T   T
  0.0018302626699521  0.7470959477548823  0.7188603546397829   T   T   T
  0.1250940879384999  0.3750940879384999  0.2812970439692464   F   F   F
  0.7500000000000000  0.2500000000000000  0.3437500000000000   F   F   F
  0.8750000000000000  0.8750000000000000  0.4062500000000000   F   F   F
  0.0000000000000000  0.5000000000000000  0.4687500000000000   F   F   F
  0.1250000000000000  0.1250000000000000  0.5312500000000000   F   F   F
  0.2500000000000000  0.7500000000000000  0.5937500000000000   F   F   F
  0.3747983825316636  0.3734816122526388  0.6566198819269791   T   T   T
  0.5101264306941289 -0.0089566258662304  0.7194472345774408   T   T   T
  0.6250000000000000  0.6250000000000000  0.2812500000000000   F   F   F
  0.6250000000000000  0.3750000000000000  0.4062500000000000   F   F   F
  0.7500000000000000  0.0000000000000000  0.4687500000000000   F   F   F
  0.8750000000000000  0.6250000000000000  0.5312500000000000   F   F   F
  0.0000000000000000  0.2500000000000000  0.5937500000000000   F   F   F
  0.1271345723703702  0.8758487516871269  0.6569546024797278   T   T   T
  0.2481371968072982  0.5032709456884344  0.7189147634983618   T   T   T
  0.3750000000000000  0.1250000000000000  0.2812500000000000   F   F   F
  0.5000000000000000  0.7500000000000000  0.3437500000000000   F   F   F
  0.0000000000000000  0.2500000000000000  0.3437500000000000   F   F   F
  0.1250000000000000  0.8750000000000000  0.4062500000000000   F   F   F
  0.2500000000000000  0.5000000000000000  0.4687500000000000   F   F   F
  0.3750000000000000  0.1250000000000000  0.5312500000000000   F   F   F
  0.5000000000000000  0.7500000000000000  0.5937500000000000   F   F   F
  0.6245416137934671  0.3726870628155572  0.6566663439353660   T   T   T
  0.7555433991158710 -0.0042578250281946  0.7142286313823346   T   T   T
  0.8750000000000000  0.6250000000000000  0.2812500000000000   F   F   F
  0.8749059120615001  0.1249059120615001  0.4062029560307536   F   F   F
  0.9999059120615001  0.7499059120615001  0.4687029560307536   F   F   F
  0.1249059120615001  0.3749059120615001  0.5312029560307465   F   F   F
  0.2499059120615001  0.9999059120615001  0.5937029560307465   F   F   F
  0.3765640720083280  0.6233818605714807  0.6564158730181987   T   T   T
  0.4985791576286421  0.2486367969423720  0.7215816693542921   T   T   T
  0.6249059120615001  0.8749059120615001  0.2812029560307465   F   F   F
  0.7499059120615001  0.4999059120615001  0.3437029560307536   F   F   F
  0.7500940879384999  0.0000940879384999  0.3437970439692464   F   F   F
  0.8750940879384999  0.6250940879384999  0.4062970439692464   F   F   F
  0.0000940879384999  0.2500940879384999  0.4687970439692464   F   F   F
  0.1250940879384999  0.8750940879384999  0.5312970439692464   F   F   F
  0.2500940879384999  0.5000940879384999  0.5937970439692464   F   F   F
  0.3748678589153811  0.1240917689221452  0.6568730311429132   T   T   T
  0.5025711265195654  0.7435033091832877  0.7183299109205035   T   T   T
  0.6250940879384999  0.3750940879384999  0.2812970439692464   F   F   F
  0.1250000000000000  0.1250000000000000  0.2812500000000000   F   F   F
  0.2500000000000000  0.7500000000000000  0.3437500000000000   F   F   F
  0.3750000000000000  0.3750000000000000  0.4062500000000000   F   F   F
  0.5000000000000000  0.0000000000000000  0.4687500000000000   F   F   F
  0.6250000000000000  0.6250000000000000  0.5312500000000000   F   F   F
  0.7500000000000000  0.2500000000000000  0.5937500000000000   F   F   F
  0.8797471690343270  0.8728353196359747  0.6554282838391252   T   T   T
 -0.0010765283944291  0.5011499834349540  0.7140465952244631   T   T   T
  0.6245069445781013  0.1251643518072996  0.4063321759036498   F   F   F
  0.7495069445781013  0.7501643518072996  0.4688321759036498   F   F   F
  0.8745069445781013  0.3751643518072996  0.5313321759036498   F   F   F
  0.9995069445781013  0.0001643518072996  0.5938321759036498   F   F   F
  0.1254371129111117  0.6252751913320547  0.6560242509014215   T   T   T
  0.2432123919278589  0.2562848294210006  0.7168463040171901   T   T   T
  0.3745069445781013  0.8751643518072996  0.2813321759036498   F   F   F
  0.4995069445781013  0.5001643518072996  0.3438321759036498   F   F   F
  0.0004930554218987  0.9998356481927004  0.3436678240963502   F   F   F
  0.1254930554218987  0.6248356481927004  0.4061678240963502   F   F   F
  0.2504930554218987  0.2498356481927004  0.4686678240963502   F   F   F
  0.3754930554218987  0.8748356481927004  0.5311678240963502   F   F   F
  0.5004930554218987  0.4998356481927004  0.5936678240963502   F   F   F
  0.6238142271822975  0.1243631264427804  0.6558048364309651   T   T   T
  0.7509768021356213  0.7480352590184803  0.7153250864690769   T   T   T
  0.8754930554218987  0.3748356481927004  0.2811678240963502   F   F   F
  0.6250000000000000  0.1250000000000000  0.2812500000000000   F   F   F
  0.7500000000000000  0.7500000000000000  0.3437500000000000   F   F   F
  0.8750000000000000  0.3750000000000000  0.4062500000000000   F   F   F
  0.0000000000000000  0.0000000000000000  0.4687500000000000   F   F   F
  0.1250000000000000  0.6250000000000000  0.5312500000000000   F   F   F
  0.2500000000000000  0.2500000000000000  0.5937500000000000   F   F   F
  0.3762819442699489  0.8749920945151018  0.6568668448279278   T   T   T
  0.5003637084176603  0.4949884724678316  0.7156851242914980   T   T   T
  0.8745069445781013  0.8751643518072996  0.2813321759036498   F   F   F
  0.9995069445781013  0.5001643518072996  0.3438321759036498   F   F   F
  0.1245069445781013  0.1251643518072996  0.4063321759036498   F   F   F
  0.2495069445781013  0.7501643518072996  0.4688321759036498   F   F   F
  0.3745069445781013  0.3751643518072996  0.5313321759036498   F   F   F
  0.4995069445781013  0.0001643518072996  0.5938321759036498   F   F   F
  0.6261114318998655  0.6232738289338237  0.6562546623488107   T   T   T
  0.7503929938017139  0.2448356807679224  0.7166727876120396   T   T   T
  0.5004930554218987  0.9998356481927004  0.3436678240963502   F   F   F
  0.6254930554218987  0.6248356481927004  0.4061678240963502   F   F   F
  0.7504930554218987  0.2498356481927004  0.4686678240963502   F   F   F
  0.8754930554218987  0.8748356481927004  0.5311678240963502   F   F   F
  0.0004930554218987  0.4998356481927004  0.5936678240963502   F   F   F
  0.1260513701428766  0.1240436384766316  0.6568117125624215   T   T   T
  0.2514157977807938  0.7519277020786882  0.7156705170821830   T   T   T
  0.3754930554218987  0.3748356481927004  0.2811678240963502   F   F   F
  0.3735405913363665  0.1284820651271966  0.7694436606849817   T   T   T
 
  0.00000000E+00  0.00000000E+00  0.00000000E+00
  0.00000000E+00  0.00000000E+00  0.00000000E+00
  0.00000000E+00  0.00000000E+00  0.00000000E+00
  0.00000000E+00  0.00000000E+00  0.00000000E+00
  0.00000000E+00  0.00000000E+00  0.00000000E+00
  0.00000000E+00  0.00000000E+00  0.00000000E+00
  0.00000000E+00  0.00000000E+00  0.00000000E+00
  0.00000000E+00  0.00000000E+00  0.00000000E+00
  0.00000000E+00  0.00000000E+00  0.00000000E+00
  0.00000000E+00  0.00000000E+00  0.00000000E+00
  0.00000000E+00  0.00000000E+00  0.00000000E+00
  0.00000000E+00  0.00000000E+00  0.00000000E+00
  0.00000000E+00  0.00000000E+00  0.00000000E+00
  0.00000000E+00  0.00000000E+00  0.00000000E+00
  0.00000000E+00  0.00000000E+00  0.00000000E+00
  0.00000000E+00  0.00000000E+00  0.00000000E+00
  0.00000000E+00  0.00000000E+00  0.00000000E+00
  0.00000000E+00  0.00000000E+00  0.00000000E+00
  0.00000000E+00  0.00000000E+00  0.00000000E+00
  0.00000000E+00  0.00000000E+00  0.00000000E+00
  0.00000000E+00  0.00000000E+00  0.00000000E+00
  0.00000000E+00  0.00000000E+00  0.00000000E+00
  0.00000000E+00  0.00000000E+00  0.00000000E+00
  0.00000000E+00  0.00000000E+00  0.00000000E+00
  0.00000000E+00  0.00000000E+00  0.00000000E+00
  0.00000000E+00  0.00000000E+00  0.00000000E+00
  0.00000000E+00  0.00000000E+00  0.00000000E+00
  0.00000000E+00  0.00000000E+00  0.00000000E+00
  0.00000000E+00  0.00000000E+00  0.00000000E+00
  0.00000000E+00  0.00000000E+00  0.00000000E+00
  0.00000000E+00  0.00000000E+00  0.00000000E+00
  0.00000000E+00  0.00000000E+00  0.00000000E+00
  0.00000000E+00  0.00000000E+00  0.00000000E+00
  0.00000000E+00  0.00000000E+00  0.00000000E+00
  0.00000000E+00  0.00000000E+00  0.00000000E+00
  0.00000000E+00  0.00000000E+00  0.00000000E+00
  0.00000000E+00  0.00000000E+00  0.00000000E+00
  0.00000000E+00  0.00000000E+00  0.00000000E+00
  0.00000000E+00  0.00000000E+00  0.00000000E+00
  0.00000000E+00  0.00000000E+00  0.00000000E+00
  0.00000000E+00  0.00000000E+00  0.00000000E+00
  0.00000000E+00  0.00000000E+00  0.00000000E+00
  0.00000000E+00  0.00000000E+00  0.00000000E+00
  0.00000000E+00  0.00000000E+00  0.00000000E+00
  0.00000000E+00  0.00000000E+00  0.00000000E+00
  0.00000000E+00  0.00000000E+00  0.00000000E+00
  0.00000000E+00  0.00000000E+00  0.00000000E+00
  0.00000000E+00  0.00000000E+00  0.00000000E+00
  0.00000000E+00  0.00000000E+00  0.00000000E+00
  0.00000000E+00  0.00000000E+00  0.00000000E+00
  0.00000000E+00  0.00000000E+00  0.00000000E+00
  0.00000000E+00  0.00000000E+00  0.00000000E+00
  0.00000000E+00  0.00000000E+00  0.00000000E+00
  0.00000000E+00  0.00000000E+00  0.00000000E+00
  0.00000000E+00  0.00000000E+00  0.00000000E+00
  0.00000000E+00  0.00000000E+00  0.00000000E+00
  0.00000000E+00  0.00000000E+00  0.00000000E+00
  0.00000000E+00  0.00000000E+00  0.00000000E+00
  0.00000000E+00  0.00000000E+00  0.00000000E+00
  0.00000000E+00  0.00000000E+00  0.00000000E+00
  0.00000000E+00  0.00000000E+00  0.00000000E+00
  0.00000000E+00  0.00000000E+00  0.00000000E+00
  0.00000000E+00  0.00000000E+00  0.00000000E+00
  0.00000000E+00  0.00000000E+00  0.00000000E+00
  0.00000000E+00  0.00000000E+00  0.00000000E+00
  0.00000000E+00  0.00000000E+00  0.00000000E+00
  0.00000000E+00  0.00000000E+00  0.00000000E+00
  0.00000000E+00  0.00000000E+00  0.00000000E+00
  0.00000000E+00  0.00000000E+00  0.00000000E+00
  0.00000000E+00  0.00000000E+00  0.00000000E+00
  0.00000000E+00  0.00000000E+00  0.00000000E+00
  0.00000000E+00  0.00000000E+00  0.00000000E+00
  0.00000000E+00  0.00000000E+00  0.00000000E+00
  0.00000000E+00  0.00000000E+00  0.00000000E+00
  0.00000000E+00  0.00000000E+00  0.00000000E+00
  0.00000000E+00  0.00000000E+00  0.00000000E+00
  0.00000000E+00  0.00000000E+00  0.00000000E+00
  0.00000000E+00  0.00000000E+00  0.00000000E+00
  0.00000000E+00  0.00000000E+00  0.00000000E+00
  0.00000000E+00  0.00000000E+00  0.00000000E+00
  0.00000000E+00  0.00000000E+00  0.00000000E+00
  0.00000000E+00  0.00000000E+00  0.00000000E+00
  0.00000000E+00  0.00000000E+00  0.00000000E+00
  0.00000000E+00  0.00000000E+00  0.00000000E+00
  0.00000000E+00  0.00000000E+00  0.00000000E+00
  0.00000000E+00  0.00000000E+00  0.00000000E+00
  0.00000000E+00  0.00000000E+00  0.00000000E+00
  0.00000000E+00  0.00000000E+00  0.00000000E+00
  0.00000000E+00  0.00000000E+00  0.00000000E+00
  0.00000000E+00  0.00000000E+00  0.00000000E+00
  0.00000000E+00  0.00000000E+00  0.00000000E+00
  0.00000000E+00  0.00000000E+00  0.00000000E+00
  0.00000000E+00  0.00000000E+00  0.00000000E+00
  0.00000000E+00  0.00000000E+00  0.00000000E+00
  0.00000000E+00  0.00000000E+00  0.00000000E+00
  0.00000000E+00  0.00000000E+00  0.00000000E+00
  0.00000000E+00  0.00000000E+00  0.00000000E+00
  0.00000000E+00  0.00000000E+00  0.00000000E+00
  0.00000000E+00  0.00000000E+00  0.00000000E+00
  0.00000000E+00  0.00000000E+00  0.00000000E+00
  0.00000000E+00  0.00000000E+00  0.00000000E+00
  0.00000000E+00  0.00000000E+00  0.00000000E+00
  0.00000000E+00  0.00000000E+00  0.00000000E+00
  0.00000000E+00  0.00000000E+00  0.00000000E+00
  0.00000000E+00  0.00000000E+00  0.00000000E+00
  0.00000000E+00  0.00000000E+00  0.00000000E+00
  0.00000000E+00  0.00000000E+00  0.00000000E+00
  0.00000000E+00  0.00000000E+00  0.00000000E+00
  0.00000000E+00  0.00000000E+00  0.00000000E+00
  0.00000000E+00  0.00000000E+00  0.00000000E+00
  0.00000000E+00  0.00000000E+00  0.00000000E+00
  0.00000000E+00  0.00000000E+00  0.00000000E+00
  0.00000000E+00  0.00000000E+00  0.00000000E+00
  0.00000000E+00  0.00000000E+00  0.00000000E+00
  0.00000000E+00  0.00000000E+00  0.00000000E+00
  0.00000000E+00  0.00000000E+00  0.00000000E+00
  0.00000000E+00  0.00000000E+00  0.00000000E+00
  0.00000000E+00  0.00000000E+00  0.00000000E+00
  0.00000000E+00  0.00000000E+00  0.00000000E+00
  0.00000000E+00  0.00000000E+00  0.00000000E+00
  0.00000000E+00  0.00000000E+00  0.00000000E+00
  0.00000000E+00  0.00000000E+00  0.00000000E+00
  0.00000000E+00  0.00000000E+00  0.00000000E+00
  0.00000000E+00  0.00000000E+00  0.00000000E+00
  0.00000000E+00  0.00000000E+00  0.00000000E+00
  0.00000000E+00  0.00000000E+00  0.00000000E+00
  0.00000000E+00  0.00000000E+00  0.00000000E+00
  0.00000000E+00  0.00000000E+00  0.00000000E+00
  0.00000000E+00  0.00000000E+00  0.00000000E+00
  0.00000000E+00  0.00000000E+00  0.00000000E+00
  0.00000000E+00  0.00000000E+00  0.00000000E+00
