Na2 Co96 S4                             
   1.00000000000000     
    10.0644778521749121    0.0000000000000000    0.0000000000000006
     2.5161194630437280    8.9321617047238462   -2.3887341805488451
     0.0000000000000000    0.0000000000000000   29.8399143425614533
   Na   Co   S 
     2    96     4
Selective dynamics
Direct
  0.4026592648066668  0.2111386823279791  0.7661589177942056   T   T   T
  0.1350329121577014  0.5827422631367877  0.8182447703421905   T   T   T
  0.1319444444444429  0.4722222222222214  0.3388888888888886   F   F   F
  0.1319444444444429  0.9722222222222214  0.3388888888888886   F   F   F
  0.3819444444444429  0.4722222222222214  0.3388888888888886   F   F   F
  0.3819444444444429  0.9722222222222214  0.3388888888888886   F   F   F
  0.6319444444444429  0.4722222222222214  0.3388888888888886   F   F   F
  0.6319444444444429  0.9722222222222214  0.3388888888888886   F   F   F
  0.8819444444444429  0.4722222222222214  0.3388888888888886   F   F   F
  0.8819444444444429  0.9722222222222214  0.3388888888888886   F   F   F
  0.2152777777777786  0.1388888888888928  0.4055555555555586   F   F   F
  0.2152777777777786  0.6388888888888857  0.4055555555555586   F   F   F
  0.4652777777777786  0.1388888888888928  0.4055555555555586   F   F   F
  0.4652777777777786  0.6388888888888857  0.4055555555555586   F   F   F
  0.7152777777777786  0.1388888888888928  0.4055555555555586   F   F   F
  0.7152777777777786  0.6388888888888857  0.4055555555555586   F   F   F
  0.9652777777777786  0.1388888888888928  0.4055555555555586   F   F   F
  0.9652777777777786  0.6388888888888857  0.4055555555555586   F   F   F
  0.0486111111111143  0.3055555555555571  0.4722222222222214   F   F   F
  0.0486111111111143  0.8055555555555571  0.4722222222222214   F   F   F
  0.2986111111111143  0.3055555555555571  0.4722222222222214   F   F   F
  0.2986111111111143  0.8055555555555571  0.4722222222222214   F   F   F
  0.5486111111111143  0.3055555555555571  0.4722222222222214   F   F   F
  0.5486111111111143  0.8055555555555571  0.4722222222222214   F   F   F
  0.7986111111111143  0.3055555555555571  0.4722222222222214   F   F   F
  0.7986111111111143  0.8055555555555571  0.4722222222222214   F   F   F
  0.0347222222222214  0.3611111111111143  0.3944444444444457   F   F   F
  0.0347222222222214  0.8611111111111143  0.3944444444444457   F   F   F
  0.2847222222222214  0.3611111111111143  0.3944444444444457   F   F   F
  0.2847222222222214  0.8611111111111143  0.3944444444444457   F   F   F
  0.5347222222222214  0.3611111111111143  0.3944444444444457   F   F   F
  0.5347222222222214  0.8611111111111143  0.3944444444444457   F   F   F
  0.7847222222222214  0.3611111111111143  0.3944444444444457   F   F   F
  0.7847222222222214  0.8611111111111143  0.3944444444444457   F   F   F
  0.1180555555555571  0.0277777777777786  0.4611111111111086   F   F   F
  0.1180555555555571  0.5277777777777786  0.4611111111111086   F   F   F
  0.3680555555555571  0.0277777777777786  0.4611111111111086   F   F   F
  0.3680555555555571  0.5277777777777786  0.4611111111111086   F   F   F
  0.6180555555555571  0.0277777777777786  0.4611111111111086   F   F   F
  0.6180555555555571  0.5277777777777786  0.4611111111111086   F   F   F
  0.8680555555555571  0.0277777777777786  0.4611111111111086   F   F   F
  0.8680555555555571  0.5277777777777786  0.4611111111111086   F   F   F
  0.2013888888888857  0.1944444444444429  0.3277777777777757   F   F   F
  0.2013888888888857  0.6944444444444429  0.3277777777777757   F   F   F
  0.4513888888888857  0.1944444444444429  0.3277777777777757   F   F   F
  0.4513888888888857  0.6944444444444429  0.3277777777777757   F   F   F
  0.7013888888888857  0.1944444444444429  0.3277777777777757   F   F   F
  0.7013888888888857  0.6944444444444429  0.3277777777777757   F   F   F
  0.9513888888888857  0.1944444444444429  0.3277777777777757   F   F   F
  0.9513888888888857  0.6944444444444429  0.3277777777777757   F   F   F
  0.1319444444444429  0.4722222222222214  0.5388888888888914   F   F   F
  0.1319444444444429  0.9722222222222214  0.5388888888888914   F   F   F
  0.3819444444444429  0.4722222222222214  0.5388888888888914   F   F   F
  0.3819444444444429  0.9722222222222214  0.5388888888888914   F   F   F
  0.6319444444444429  0.4722222222222214  0.5388888888888914   F   F   F
  0.6319444444444429  0.9722222222222214  0.5388888888888914   F   F   F
  0.8819444444444429  0.4722222222222214  0.5388888888888914   F   F   F
  0.8819444444444429  0.9722222222222214  0.5388888888888914   F   F   F
  0.2139502412264299  0.1437949612108925  0.6068665975110874   T   T   T
  0.2128090544121895  0.6403063433171668  0.6050160158337993   T   T   T
  0.4613016129829333  0.1435363477146114  0.6056804531767065   T   T   T
  0.4635298712515638  0.6408533586008212  0.6048659480924983   T   T   T
  0.7155142448787428  0.1363451780329646  0.6039132588640959   T   T   T
  0.7138410440118408  0.6390979691866947  0.6052011606925837   T   T   T
  0.9638646034044330  0.1382332117406514  0.6041580339871280   T   T   T
  0.9643991670611143  0.6389215623431286  0.6046109683683366   T   T   T
  0.0321560437087866  0.3016173005604088  0.6702394070032122   T   T   T
  0.0513567389764989  0.8038573223288648  0.6696314255329124   T   T   T
  0.2934750318044456  0.3159073283369785  0.6794882276757163   T   T   T
  0.3014026479821911  0.8143085583823122  0.6699963744670367   T   T   T
  0.5561439901877822  0.2953937934328794  0.6705820727026747   T   T   T
  0.5486268327000601  0.8082807079234521  0.6700933178781183   T   T   T
  0.7943599824914205  0.3064174011145240  0.6689938147212225   T   T   T
  0.8014237850035535  0.8068377803887636  0.6699765874423126   T   T   T
  0.0347222222222214  0.3611111111111143  0.5944444444444414   F   F   F
  0.0347222222222214  0.8611111111111143  0.5944444444444414   F   F   F
  0.2847222222222214  0.3611111111111143  0.5944444444444414   F   F   F
  0.2847222222222214  0.8611111111111143  0.5944444444444414   F   F   F
  0.5347222222222214  0.3611111111111143  0.5944444444444414   F   F   F
  0.5347222222222214  0.8611111111111143  0.5944444444444414   F   F   F
  0.7847222222222214  0.3611111111111143  0.5944444444444414   F   F   F
  0.7847222222222214  0.8611111111111143  0.5944444444444414   F   F   F
  0.1165829114849393  0.0278395963618382  0.6593333260686518   T   T   T
  0.1102203850209150  0.5289071863120296  0.6590731804479869   T   T   T
  0.3693570361624103  0.0324636775807507  0.6592066922740228   T   T   T
  0.3580959042613147  0.5451488612094274  0.6612851355279284   T   T   T
  0.6175044325934257  0.0265739874225792  0.6593612351251370   T   T   T
  0.6137390024534963  0.5336882860029005  0.6595513385419576   T   T   T
  0.8670808178658976  0.0338896920606871  0.6597058149675895   T   T   T
  0.8623524077630541  0.5350661622034609  0.6590817459689309   T   T   T
  0.2013888888888857  0.1944444444444429  0.5277777777777786   F   F   F
  0.2013888888888857  0.6944444444444429  0.5277777777777786   F   F   F
  0.4513888888888857  0.1944444444444429  0.5277777777777786   F   F   F
  0.4513888888888857  0.6944444444444429  0.5277777777777786   F   F   F
  0.7013888888888857  0.1944444444444429  0.5277777777777786   F   F   F
  0.7013888888888857  0.6944444444444429  0.5277777777777786   F   F   F
  0.9513888888888857  0.1944444444444429  0.5277777777777786   F   F   F
  0.9513888888888857  0.6944444444444429  0.5277777777777786   F   F   F
  0.1198273180376337  0.2904288232045984  0.7919516384606994   T   T   T
  0.4174592989185593  0.4654479626122985  0.7236803572088705   T   T   T
  0.4139960629887777  0.5249398085709001  0.7961385705111583   T   T   T
  0.1133434977721022  0.3856314300967277  0.7352162839585082   T   T   T
 
  0.00000000E+00  0.00000000E+00  0.00000000E+00
  0.00000000E+00  0.00000000E+00  0.00000000E+00
  0.00000000E+00  0.00000000E+00  0.00000000E+00
  0.00000000E+00  0.00000000E+00  0.00000000E+00
  0.00000000E+00  0.00000000E+00  0.00000000E+00
  0.00000000E+00  0.00000000E+00  0.00000000E+00
  0.00000000E+00  0.00000000E+00  0.00000000E+00
  0.00000000E+00  0.00000000E+00  0.00000000E+00
  0.00000000E+00  0.00000000E+00  0.00000000E+00
  0.00000000E+00  0.00000000E+00  0.00000000E+00
  0.00000000E+00  0.00000000E+00  0.00000000E+00
  0.00000000E+00  0.00000000E+00  0.00000000E+00
  0.00000000E+00  0.00000000E+00  0.00000000E+00
  0.00000000E+00  0.00000000E+00  0.00000000E+00
  0.00000000E+00  0.00000000E+00  0.00000000E+00
  0.00000000E+00  0.00000000E+00  0.00000000E+00
  0.00000000E+00  0.00000000E+00  0.00000000E+00
  0.00000000E+00  0.00000000E+00  0.00000000E+00
  0.00000000E+00  0.00000000E+00  0.00000000E+00
  0.00000000E+00  0.00000000E+00  0.00000000E+00
  0.00000000E+00  0.00000000E+00  0.00000000E+00
  0.00000000E+00  0.00000000E+00  0.00000000E+00
  0.00000000E+00  0.00000000E+00  0.00000000E+00
  0.00000000E+00  0.00000000E+00  0.00000000E+00
  0.00000000E+00  0.00000000E+00  0.00000000E+00
  0.00000000E+00  0.00000000E+00  0.00000000E+00
  0.00000000E+00  0.00000000E+00  0.00000000E+00
  0.00000000E+00  0.00000000E+00  0.00000000E+00
  0.00000000E+00  0.00000000E+00  0.00000000E+00
  0.00000000E+00  0.00000000E+00  0.00000000E+00
  0.00000000E+00  0.00000000E+00  0.00000000E+00
  0.00000000E+00  0.00000000E+00  0.00000000E+00
  0.00000000E+00  0.00000000E+00  0.00000000E+00
  0.00000000E+00  0.00000000E+00  0.00000000E+00
  0.00000000E+00  0.00000000E+00  0.00000000E+00
  0.00000000E+00  0.00000000E+00  0.00000000E+00
  0.00000000E+00  0.00000000E+00  0.00000000E+00
  0.00000000E+00  0.00000000E+00  0.00000000E+00
  0.00000000E+00  0.00000000E+00  0.00000000E+00
  0.00000000E+00  0.00000000E+00  0.00000000E+00
  0.00000000E+00  0.00000000E+00  0.00000000E+00
  0.00000000E+00  0.00000000E+00  0.00000000E+00
  0.00000000E+00  0.00000000E+00  0.00000000E+00
  0.00000000E+00  0.00000000E+00  0.00000000E+00
  0.00000000E+00  0.00000000E+00  0.00000000E+00
  0.00000000E+00  0.00000000E+00  0.00000000E+00
  0.00000000E+00  0.00000000E+00  0.00000000E+00
  0.00000000E+00  0.00000000E+00  0.00000000E+00
  0.00000000E+00  0.00000000E+00  0.00000000E+00
  0.00000000E+00  0.00000000E+00  0.00000000E+00
  0.00000000E+00  0.00000000E+00  0.00000000E+00
  0.00000000E+00  0.00000000E+00  0.00000000E+00
  0.00000000E+00  0.00000000E+00  0.00000000E+00
  0.00000000E+00  0.00000000E+00  0.00000000E+00
  0.00000000E+00  0.00000000E+00  0.00000000E+00
  0.00000000E+00  0.00000000E+00  0.00000000E+00
  0.00000000E+00  0.00000000E+00  0.00000000E+00
  0.00000000E+00  0.00000000E+00  0.00000000E+00
  0.00000000E+00  0.00000000E+00  0.00000000E+00
  0.00000000E+00  0.00000000E+00  0.00000000E+00
  0.00000000E+00  0.00000000E+00  0.00000000E+00
  0.00000000E+00  0.00000000E+00  0.00000000E+00
  0.00000000E+00  0.00000000E+00  0.00000000E+00
  0.00000000E+00  0.00000000E+00  0.00000000E+00
  0.00000000E+00  0.00000000E+00  0.00000000E+00
  0.00000000E+00  0.00000000E+00  0.00000000E+00
  0.00000000E+00  0.00000000E+00  0.00000000E+00
  0.00000000E+00  0.00000000E+00  0.00000000E+00
  0.00000000E+00  0.00000000E+00  0.00000000E+00
  0.00000000E+00  0.00000000E+00  0.00000000E+00
  0.00000000E+00  0.00000000E+00  0.00000000E+00
  0.00000000E+00  0.00000000E+00  0.00000000E+00
  0.00000000E+00  0.00000000E+00  0.00000000E+00
  0.00000000E+00  0.00000000E+00  0.00000000E+00
  0.00000000E+00  0.00000000E+00  0.00000000E+00
  0.00000000E+00  0.00000000E+00  0.00000000E+00
  0.00000000E+00  0.00000000E+00  0.00000000E+00
  0.00000000E+00  0.00000000E+00  0.00000000E+00
  0.00000000E+00  0.00000000E+00  0.00000000E+00
  0.00000000E+00  0.00000000E+00  0.00000000E+00
  0.00000000E+00  0.00000000E+00  0.00000000E+00
  0.00000000E+00  0.00000000E+00  0.00000000E+00
  0.00000000E+00  0.00000000E+00  0.00000000E+00
  0.00000000E+00  0.00000000E+00  0.00000000E+00
  0.00000000E+00  0.00000000E+00  0.00000000E+00
  0.00000000E+00  0.00000000E+00  0.00000000E+00
  0.00000000E+00  0.00000000E+00  0.00000000E+00
  0.00000000E+00  0.00000000E+00  0.00000000E+00
  0.00000000E+00  0.00000000E+00  0.00000000E+00
  0.00000000E+00  0.00000000E+00  0.00000000E+00
  0.00000000E+00  0.00000000E+00  0.00000000E+00
  0.00000000E+00  0.00000000E+00  0.00000000E+00
  0.00000000E+00  0.00000000E+00  0.00000000E+00
  0.00000000E+00  0.00000000E+00  0.00000000E+00
  0.00000000E+00  0.00000000E+00  0.00000000E+00
  0.00000000E+00  0.00000000E+00  0.00000000E+00
  0.00000000E+00  0.00000000E+00  0.00000000E+00
  0.00000000E+00  0.00000000E+00  0.00000000E+00
  0.00000000E+00  0.00000000E+00  0.00000000E+00
  0.00000000E+00  0.00000000E+00  0.00000000E+00
  0.00000000E+00  0.00000000E+00  0.00000000E+00
  0.00000000E+00  0.00000000E+00  0.00000000E+00
