Na2 Mn72 Ni24 S2                        
   1.00000000000000     
    10.0435731758686053    0.0000000000000000    0.0000000000000006
     5.0217865879343071    8.6979895150701676    0.0000000000000006
     0.0000000000000000    0.0000000000000000   24.6016294751824205
   Na   Mn   Ni   S 
     2    72    24     2
Selective dynamics
Direct
  0.9194735475447486  0.6888433540160889  0.8419321696025264   T   T   T
  0.9195778011598023  0.2498561071131229  0.8286556541957014   T   T   T
  0.3333333333333357  0.0833333333333357  0.2916666666666643   F   F   F
  0.3333333333333357  0.5833333333333357  0.2916666666666643   F   F   F
  0.8333333333333357  0.0833333333333357  0.2916666666666643   F   F   F
  0.8333333333333357  0.5833333333333357  0.2916666666666643   F   F   F
  0.0000000000000000  0.2500000000000000  0.3750000000000000   F   F   F
  0.0000000000000000  0.7500000000000000  0.3750000000000000   F   F   F
  0.5000000000000000  0.2500000000000000  0.3750000000000000   F   F   F
  0.5000000000000000  0.7500000000000000  0.3750000000000000   F   F   F
  0.1666666666666643  0.4166666666666643  0.4583333333333357   F   F   F
  0.1666666666666643  0.9166666666666643  0.4583333333333357   F   F   F
  0.6666666666666643  0.4166666666666643  0.4583333333333357   F   F   F
  0.6666666666666643  0.9166666666666643  0.4583333333333357   F   F   F
  0.0833333333333357  0.0833333333333357  0.2916666666666643   F   F   F
  0.0833333333333357  0.5833333333333357  0.2916666666666643   F   F   F
  0.5833333333333357  0.0833333333333357  0.2916666666666643   F   F   F
  0.5833333333333357  0.5833333333333357  0.2916666666666643   F   F   F
  0.2500000000000000  0.2500000000000000  0.3750000000000000   F   F   F
  0.2500000000000000  0.7500000000000000  0.3750000000000000   F   F   F
  0.7500000000000000  0.2500000000000000  0.3750000000000000   F   F   F
  0.7500000000000000  0.7500000000000000  0.3750000000000000   F   F   F
  0.4166666666666643  0.4166666666666643  0.4583333333333357   F   F   F
  0.4166666666666643  0.9166666666666643  0.4583333333333357   F   F   F
  0.9166666666666643  0.4166666666666643  0.4583333333333357   F   F   F
  0.9166666666666643  0.9166666666666643  0.4583333333333357   F   F   F
  0.0833333333333357  0.3333333333333357  0.2916666666666643   F   F   F
  0.0833333333333357  0.8333333333333357  0.2916666666666643   F   F   F
  0.5833333333333357  0.3333333333333357  0.2916666666666643   F   F   F
  0.5833333333333357  0.8333333333333357  0.2916666666666643   F   F   F
  0.2500000000000000  0.5000000000000000  0.3750000000000000   F   F   F
  0.2500000000000000  0.0000000000000000  0.3750000000000000   F   F   F
  0.7500000000000000  0.5000000000000000  0.3750000000000000   F   F   F
  0.7500000000000000  0.0000000000000000  0.3750000000000000   F   F   F
  0.4166666666666643  0.1666666666666643  0.4583333333333357   F   F   F
  0.4166666666666643  0.6666666666666643  0.4583333333333357   F   F   F
  0.9166666666666643  0.1666666666666643  0.4583333333333357   F   F   F
  0.9166666666666643  0.6666666666666643  0.4583333333333357   F   F   F
  0.3333333333333357  0.0833333333333357  0.5416666666666643   F   F   F
  0.3333333333333357  0.5833333333333357  0.5416666666666643   F   F   F
  0.8333333333333357  0.0833333333333357  0.5416666666666643   F   F   F
  0.8333333333333357  0.5833333333333357  0.5416666666666643   F   F   F
 -0.0006103513079355  0.2490664096226199  0.6285556096707512   T   T   T
 -0.0026568165018796  0.7502255515444969  0.6301461815557016   T   T   T
  0.4990538861186271  0.2499409473198001  0.6292273636640791   T   T   T
  0.4998056995834900  0.7506596532040029  0.6298529846272386   T   T   T
  0.1755196049801886  0.4145010554810269  0.7092086158198242   T   T   T
  0.1733600724077706  0.9131484409635896  0.7044082248883131   T   T   T
  0.6714629260454011  0.4126266223216757  0.7057689833064174   T   T   T
  0.6747528875193264  0.9151872713868963  0.7032377539453467   T   T   T
  0.0833333333333357  0.0833333333333357  0.5416666666666643   F   F   F
  0.0833333333333357  0.5833333333333357  0.5416666666666643   F   F   F
  0.5833333333333357  0.0833333333333357  0.5416666666666643   F   F   F
  0.5833333333333357  0.5833333333333357  0.5416666666666643   F   F   F
  0.2509122597184060  0.2497412603635056  0.6290956363569112   T   T   T
  0.2509340285903637  0.7501741572983621  0.6297664148239334   T   T   T
  0.7500498992589454  0.2506816487890814  0.6289620672132653   T   T   T
  0.7511970738245916  0.7509527685105249  0.6294246471214267   T   T   T
  0.4134847733349236  0.4136026489565779  0.7030247038225209   T   T   T
  0.4113732116144992  0.9141915047193110  0.7034629081629121   T   T   T
  0.9116808975205452  0.4073811045124503  0.7100891151785117   T   T   T
  0.9134098645986777  0.9134904270649454  0.7046099997283573   T   T   T
  0.0833333333333357  0.3333333333333357  0.5416666666666643   F   F   F
  0.0833333333333357  0.8333333333333357  0.5416666666666643   F   F   F
  0.5833333333333357  0.3333333333333357  0.5416666666666643   F   F   F
  0.5833333333333357  0.8333333333333357  0.5416666666666643   F   F   F
  0.2525386215197111  0.4989047773487188  0.6284172623017892   T   T   T
  0.2504356180701586 -0.0001072137804656  0.6301601293304741   T   T   T
  0.7500710922983421  0.4991773221521389  0.6282401131928258   T   T   T
  0.7499812277074096 -0.0019358204777234  0.6295858496563891   T   T   T
  0.4145493420050693  0.1722572055117929  0.7035706273685862   T   T   T
  0.4090469876800210  0.6758242523771825  0.7035569134071731   T   T   T
  0.9142854181833182  0.1679787183117562  0.7017670275725790   T   T   T
  0.9118641784758214  0.6848376106174147  0.7033026324877414   T   T   T
  0.0000000000000000  0.5000000000000000  0.3750000000000000   F   F   F
  0.0000000000000000  0.0000000000000000  0.3750000000000000   F   F   F
  0.5000000000000000  0.5000000000000000  0.3750000000000000   F   F   F
  0.5000000000000000  0.0000000000000000  0.3750000000000000   F   F   F
  0.1666666666666643  0.1666666666666643  0.4583333333333357   F   F   F
  0.1666666666666643  0.6666666666666643  0.4583333333333357   F   F   F
  0.6666666666666643  0.1666666666666643  0.4583333333333357   F   F   F
  0.6666666666666643  0.6666666666666643  0.4583333333333357   F   F   F
  0.3333333333333357  0.3333333333333357  0.2916666666666643   F   F   F
  0.3333333333333357  0.8333333333333357  0.2916666666666643   F   F   F
  0.8333333333333357  0.3333333333333357  0.2916666666666643   F   F   F
  0.8333333333333357  0.8333333333333357  0.2916666666666643   F   F   F
 -0.0005020820002719  0.4993760059561206  0.6253207548927722   T   T   T
 -0.0001972556580013  0.0005639202602594  0.6248758456684896   T   T   T
  0.5009490075272626  0.4995986040734393  0.6254361202662904   T   T   T
  0.5002798561810508 -0.0001783113158417  0.6249279627812594   T   T   T
  0.1682021027501900  0.1626005986006391  0.7068017791307979   T   T   T
  0.1663725866925106  0.6682066876452879  0.7066383040087352   T   T   T
  0.6671508125364010  0.1666650898850518  0.7069529001212719   T   T   T
  0.6653414628891136  0.6676912774698475  0.7104987720062234   T   T   T
  0.3333333333333357  0.3333333333333357  0.5416666666666643   F   F   F
  0.3333333333333357  0.8333333333333357  0.5416666666666643   F   F   F
  0.8333333333333357  0.3333333333333357  0.5416666666666643   F   F   F
  0.8333333333333357  0.8333333333333357  0.5416666666666643   F   F   F
  0.0730881332945161  0.4011648491963400  0.7844540226823077   T   T   T
  0.7573592404273215  0.5577656372828095  0.7864757703608976   T   T   T
 
  0.00000000E+00  0.00000000E+00  0.00000000E+00
  0.00000000E+00  0.00000000E+00  0.00000000E+00
  0.00000000E+00  0.00000000E+00  0.00000000E+00
  0.00000000E+00  0.00000000E+00  0.00000000E+00
  0.00000000E+00  0.00000000E+00  0.00000000E+00
  0.00000000E+00  0.00000000E+00  0.00000000E+00
  0.00000000E+00  0.00000000E+00  0.00000000E+00
  0.00000000E+00  0.00000000E+00  0.00000000E+00
  0.00000000E+00  0.00000000E+00  0.00000000E+00
  0.00000000E+00  0.00000000E+00  0.00000000E+00
  0.00000000E+00  0.00000000E+00  0.00000000E+00
  0.00000000E+00  0.00000000E+00  0.00000000E+00
  0.00000000E+00  0.00000000E+00  0.00000000E+00
  0.00000000E+00  0.00000000E+00  0.00000000E+00
  0.00000000E+00  0.00000000E+00  0.00000000E+00
  0.00000000E+00  0.00000000E+00  0.00000000E+00
  0.00000000E+00  0.00000000E+00  0.00000000E+00
  0.00000000E+00  0.00000000E+00  0.00000000E+00
  0.00000000E+00  0.00000000E+00  0.00000000E+00
  0.00000000E+00  0.00000000E+00  0.00000000E+00
  0.00000000E+00  0.00000000E+00  0.00000000E+00
  0.00000000E+00  0.00000000E+00  0.00000000E+00
  0.00000000E+00  0.00000000E+00  0.00000000E+00
  0.00000000E+00  0.00000000E+00  0.00000000E+00
  0.00000000E+00  0.00000000E+00  0.00000000E+00
  0.00000000E+00  0.00000000E+00  0.00000000E+00
  0.00000000E+00  0.00000000E+00  0.00000000E+00
  0.00000000E+00  0.00000000E+00  0.00000000E+00
  0.00000000E+00  0.00000000E+00  0.00000000E+00
  0.00000000E+00  0.00000000E+00  0.00000000E+00
  0.00000000E+00  0.00000000E+00  0.00000000E+00
  0.00000000E+00  0.00000000E+00  0.00000000E+00
  0.00000000E+00  0.00000000E+00  0.00000000E+00
  0.00000000E+00  0.00000000E+00  0.00000000E+00
  0.00000000E+00  0.00000000E+00  0.00000000E+00
  0.00000000E+00  0.00000000E+00  0.00000000E+00
  0.00000000E+00  0.00000000E+00  0.00000000E+00
  0.00000000E+00  0.00000000E+00  0.00000000E+00
  0.00000000E+00  0.00000000E+00  0.00000000E+00
  0.00000000E+00  0.00000000E+00  0.00000000E+00
  0.00000000E+00  0.00000000E+00  0.00000000E+00
  0.00000000E+00  0.00000000E+00  0.00000000E+00
  0.00000000E+00  0.00000000E+00  0.00000000E+00
  0.00000000E+00  0.00000000E+00  0.00000000E+00
  0.00000000E+00  0.00000000E+00  0.00000000E+00
  0.00000000E+00  0.00000000E+00  0.00000000E+00
  0.00000000E+00  0.00000000E+00  0.00000000E+00
  0.00000000E+00  0.00000000E+00  0.00000000E+00
  0.00000000E+00  0.00000000E+00  0.00000000E+00
  0.00000000E+00  0.00000000E+00  0.00000000E+00
  0.00000000E+00  0.00000000E+00  0.00000000E+00
  0.00000000E+00  0.00000000E+00  0.00000000E+00
  0.00000000E+00  0.00000000E+00  0.00000000E+00
  0.00000000E+00  0.00000000E+00  0.00000000E+00
  0.00000000E+00  0.00000000E+00  0.00000000E+00
  0.00000000E+00  0.00000000E+00  0.00000000E+00
  0.00000000E+00  0.00000000E+00  0.00000000E+00
  0.00000000E+00  0.00000000E+00  0.00000000E+00
  0.00000000E+00  0.00000000E+00  0.00000000E+00
  0.00000000E+00  0.00000000E+00  0.00000000E+00
  0.00000000E+00  0.00000000E+00  0.00000000E+00
  0.00000000E+00  0.00000000E+00  0.00000000E+00
  0.00000000E+00  0.00000000E+00  0.00000000E+00
  0.00000000E+00  0.00000000E+00  0.00000000E+00
  0.00000000E+00  0.00000000E+00  0.00000000E+00
  0.00000000E+00  0.00000000E+00  0.00000000E+00
  0.00000000E+00  0.00000000E+00  0.00000000E+00
  0.00000000E+00  0.00000000E+00  0.00000000E+00
  0.00000000E+00  0.00000000E+00  0.00000000E+00
  0.00000000E+00  0.00000000E+00  0.00000000E+00
  0.00000000E+00  0.00000000E+00  0.00000000E+00
  0.00000000E+00  0.00000000E+00  0.00000000E+00
  0.00000000E+00  0.00000000E+00  0.00000000E+00
  0.00000000E+00  0.00000000E+00  0.00000000E+00
  0.00000000E+00  0.00000000E+00  0.00000000E+00
  0.00000000E+00  0.00000000E+00  0.00000000E+00
  0.00000000E+00  0.00000000E+00  0.00000000E+00
  0.00000000E+00  0.00000000E+00  0.00000000E+00
  0.00000000E+00  0.00000000E+00  0.00000000E+00
  0.00000000E+00  0.00000000E+00  0.00000000E+00
  0.00000000E+00  0.00000000E+00  0.00000000E+00
  0.00000000E+00  0.00000000E+00  0.00000000E+00
  0.00000000E+00  0.00000000E+00  0.00000000E+00
  0.00000000E+00  0.00000000E+00  0.00000000E+00
  0.00000000E+00  0.00000000E+00  0.00000000E+00
  0.00000000E+00  0.00000000E+00  0.00000000E+00
  0.00000000E+00  0.00000000E+00  0.00000000E+00
  0.00000000E+00  0.00000000E+00  0.00000000E+00
  0.00000000E+00  0.00000000E+00  0.00000000E+00
  0.00000000E+00  0.00000000E+00  0.00000000E+00
  0.00000000E+00  0.00000000E+00  0.00000000E+00
  0.00000000E+00  0.00000000E+00  0.00000000E+00
  0.00000000E+00  0.00000000E+00  0.00000000E+00
  0.00000000E+00  0.00000000E+00  0.00000000E+00
  0.00000000E+00  0.00000000E+00  0.00000000E+00
  0.00000000E+00  0.00000000E+00  0.00000000E+00
  0.00000000E+00  0.00000000E+00  0.00000000E+00
  0.00000000E+00  0.00000000E+00  0.00000000E+00
  0.00000000E+00  0.00000000E+00  0.00000000E+00
  0.00000000E+00  0.00000000E+00  0.00000000E+00
