Na2 Co96 S8                             
   1.00000000000000     
    10.0571076808180369    0.0000000000000000    0.0000000000000006
     2.5142769202045105    8.9261415523968921   -2.3880814800645740
     0.0000000000000000    0.0000000000000000   29.8195858510089984
   Na   Co   S 
     2    96     8
Selective dynamics
Direct
  0.0176784421853655  0.5419234131240996  0.7931677754777068   T   T   T
  0.3619167006854623  0.4613826237675274  0.8221632868090125   T   T   T
  0.1319444444444429  0.4722222222222214  0.3388888888888886   F   F   F
  0.1319444444444429  0.9722222222222214  0.3388888888888886   F   F   F
  0.3819444444444429  0.4722222222222214  0.3388888888888886   F   F   F
  0.3819444444444429  0.9722222222222214  0.3388888888888886   F   F   F
  0.6319444444444429  0.4722222222222214  0.3388888888888886   F   F   F
  0.6319444444444429  0.9722222222222214  0.3388888888888886   F   F   F
  0.8819444444444429  0.4722222222222214  0.3388888888888886   F   F   F
  0.8819444444444429  0.9722222222222214  0.3388888888888886   F   F   F
  0.2152777777777786  0.1388888888888928  0.4055555555555586   F   F   F
  0.2152777777777786  0.6388888888888857  0.4055555555555586   F   F   F
  0.4652777777777786  0.1388888888888928  0.4055555555555586   F   F   F
  0.4652777777777786  0.6388888888888857  0.4055555555555586   F   F   F
  0.7152777777777786  0.1388888888888928  0.4055555555555586   F   F   F
  0.7152777777777786  0.6388888888888857  0.4055555555555586   F   F   F
  0.9652777777777786  0.1388888888888928  0.4055555555555586   F   F   F
  0.9652777777777786  0.6388888888888857  0.4055555555555586   F   F   F
  0.0486111111111143  0.3055555555555571  0.4722222222222214   F   F   F
  0.0486111111111143  0.8055555555555571  0.4722222222222214   F   F   F
  0.2986111111111143  0.3055555555555571  0.4722222222222214   F   F   F
  0.2986111111111143  0.8055555555555571  0.4722222222222214   F   F   F
  0.5486111111111143  0.3055555555555571  0.4722222222222214   F   F   F
  0.5486111111111143  0.8055555555555571  0.4722222222222214   F   F   F
  0.7986111111111143  0.3055555555555571  0.4722222222222214   F   F   F
  0.7986111111111143  0.8055555555555571  0.4722222222222214   F   F   F
  0.0347222222222214  0.3611111111111143  0.3944444444444457   F   F   F
  0.0347222222222214  0.8611111111111143  0.3944444444444457   F   F   F
  0.2847222222222214  0.3611111111111143  0.3944444444444457   F   F   F
  0.2847222222222214  0.8611111111111143  0.3944444444444457   F   F   F
  0.5347222222222214  0.3611111111111143  0.3944444444444457   F   F   F
  0.5347222222222214  0.8611111111111143  0.3944444444444457   F   F   F
  0.7847222222222214  0.3611111111111143  0.3944444444444457   F   F   F
  0.7847222222222214  0.8611111111111143  0.3944444444444457   F   F   F
  0.1180555555555571  0.0277777777777786  0.4611111111111086   F   F   F
  0.1180555555555571  0.5277777777777786  0.4611111111111086   F   F   F
  0.3680555555555571  0.0277777777777786  0.4611111111111086   F   F   F
  0.3680555555555571  0.5277777777777786  0.4611111111111086   F   F   F
  0.6180555555555571  0.0277777777777786  0.4611111111111086   F   F   F
  0.6180555555555571  0.5277777777777786  0.4611111111111086   F   F   F
  0.8680555555555571  0.0277777777777786  0.4611111111111086   F   F   F
  0.8680555555555571  0.5277777777777786  0.4611111111111086   F   F   F
  0.2013888888888857  0.1944444444444429  0.3277777777777757   F   F   F
  0.2013888888888857  0.6944444444444429  0.3277777777777757   F   F   F
  0.4513888888888857  0.1944444444444429  0.3277777777777757   F   F   F
  0.4513888888888857  0.6944444444444429  0.3277777777777757   F   F   F
  0.7013888888888857  0.1944444444444429  0.3277777777777757   F   F   F
  0.7013888888888857  0.6944444444444429  0.3277777777777757   F   F   F
  0.9513888888888857  0.1944444444444429  0.3277777777777757   F   F   F
  0.9513888888888857  0.6944444444444429  0.3277777777777757   F   F   F
  0.1319444444444429  0.4722222222222214  0.5388888888888914   F   F   F
  0.1319444444444429  0.9722222222222214  0.5388888888888914   F   F   F
  0.3819444444444429  0.4722222222222214  0.5388888888888914   F   F   F
  0.3819444444444429  0.9722222222222214  0.5388888888888914   F   F   F
  0.6319444444444429  0.4722222222222214  0.5388888888888914   F   F   F
  0.6319444444444429  0.9722222222222214  0.5388888888888914   F   F   F
  0.8819444444444429  0.4722222222222214  0.5388888888888914   F   F   F
  0.8819444444444429  0.9722222222222214  0.5388888888888914   F   F   F
  0.2142782417266591  0.1406776885536339  0.6051448038625213   T   T   T
  0.2130797636703292  0.6393081409045681  0.6044838312112804   T   T   T
  0.4622106364393903  0.1419569182780527  0.6052865826418039   T   T   T
  0.4659017241759111  0.6385973401765304  0.6039677204785661   T   T   T
  0.7146165543086048  0.1338950035944821  0.6028872960069509   T   T   T
  0.7186682844177724  0.6385213480407572  0.6053633018341762   T   T   T
  0.9672682480289128  0.1400111811555268  0.6054919612055689   T   T   T
  0.9649657952416041  0.6377222615398218  0.6052442813130813   T   T   T
  0.0416075967666871  0.3071704816687064  0.6747273069785663   T   T   T
  0.0554993966529292  0.8101571997130709  0.6698980556348206   T   T   T
  0.2980594393236813  0.3119826902212528  0.6728968559605021   T   T   T
  0.3043688060835635  0.8018706369888017  0.6685483947298668   T   T   T
  0.5520675734855568  0.3005947529123537  0.6690654634302667   T   T   T
  0.5544829950111797  0.8003426899446646  0.6692289051823572   T   T   T
  0.7894907733317913  0.2957442678203865  0.6672237320956682   T   T   T
  0.7949470680999849  0.8164020437463108  0.6713808723977734   T   T   T
  0.0347222222222214  0.3611111111111143  0.5944444444444414   F   F   F
  0.0347222222222214  0.8611111111111143  0.5944444444444414   F   F   F
  0.2847222222222214  0.3611111111111143  0.5944444444444414   F   F   F
  0.2847222222222214  0.8611111111111143  0.5944444444444414   F   F   F
  0.5347222222222214  0.3611111111111143  0.5944444444444414   F   F   F
  0.5347222222222214  0.8611111111111143  0.5944444444444414   F   F   F
  0.7847222222222214  0.3611111111111143  0.5944444444444414   F   F   F
  0.7847222222222214  0.8611111111111143  0.5944444444444414   F   F   F
  0.1212223887040903  0.0239981205326429  0.6608953722972224   T   T   T
  0.1162613682565772  0.5294913565599516  0.6610036051312252   T   T   T
  0.3723786799994634  0.0243827501508239  0.6609421242954912   T   T   T
  0.3658664904973182  0.5333598517264947  0.6589342379631143   T   T   T
  0.6177436811729258  0.0292739216155246  0.6594280817082694   T   T   T
  0.6120844353781997  0.5388813568679840  0.6608675602818890   T   T   T
  0.8682207967443710  0.0296919221891443  0.6587142692148842   T   T   T
  0.8631600934135814  0.5325850282123704  0.6649718975142657   T   T   T
  0.2013888888888857  0.1944444444444429  0.5277777777777786   F   F   F
  0.2013888888888857  0.6944444444444429  0.5277777777777786   F   F   F
  0.4513888888888857  0.1944444444444429  0.5277777777777786   F   F   F
  0.4513888888888857  0.6944444444444429  0.5277777777777786   F   F   F
  0.7013888888888857  0.1944444444444429  0.5277777777777786   F   F   F
  0.7013888888888857  0.6944444444444429  0.5277777777777786   F   F   F
  0.9513888888888857  0.1944444444444429  0.5277777777777786   F   F   F
  0.9513888888888857  0.6944444444444429  0.5277777777777786   F   F   F
  0.2077825626553463  0.1906325303378280  0.7126611926856378   T   T   T
  0.4006714154268186  0.4620993592825869  0.7226503508546990   T   T   T
  0.1181221280202405  0.6516831190081566  0.8774805506981495   T   T   T
  0.3833222338900943  0.7624157425919682  0.8438972198255427   T   T   T
  0.8559368113650769  0.4320916279065187  0.7252619221660447   T   T   T
  0.2025219523521946  0.2405120804039133  0.7835054174620492   T   T   T
  0.1849947704215487  0.8239710013407977  0.8663623233011668   T   T   T
  0.9533951533076002  0.7101171002693242  0.7137451385482283   T   T   T
 
  0.00000000E+00  0.00000000E+00  0.00000000E+00
  0.00000000E+00  0.00000000E+00  0.00000000E+00
  0.00000000E+00  0.00000000E+00  0.00000000E+00
  0.00000000E+00  0.00000000E+00  0.00000000E+00
  0.00000000E+00  0.00000000E+00  0.00000000E+00
  0.00000000E+00  0.00000000E+00  0.00000000E+00
  0.00000000E+00  0.00000000E+00  0.00000000E+00
  0.00000000E+00  0.00000000E+00  0.00000000E+00
  0.00000000E+00  0.00000000E+00  0.00000000E+00
  0.00000000E+00  0.00000000E+00  0.00000000E+00
  0.00000000E+00  0.00000000E+00  0.00000000E+00
  0.00000000E+00  0.00000000E+00  0.00000000E+00
  0.00000000E+00  0.00000000E+00  0.00000000E+00
  0.00000000E+00  0.00000000E+00  0.00000000E+00
  0.00000000E+00  0.00000000E+00  0.00000000E+00
  0.00000000E+00  0.00000000E+00  0.00000000E+00
  0.00000000E+00  0.00000000E+00  0.00000000E+00
  0.00000000E+00  0.00000000E+00  0.00000000E+00
  0.00000000E+00  0.00000000E+00  0.00000000E+00
  0.00000000E+00  0.00000000E+00  0.00000000E+00
  0.00000000E+00  0.00000000E+00  0.00000000E+00
  0.00000000E+00  0.00000000E+00  0.00000000E+00
  0.00000000E+00  0.00000000E+00  0.00000000E+00
  0.00000000E+00  0.00000000E+00  0.00000000E+00
  0.00000000E+00  0.00000000E+00  0.00000000E+00
  0.00000000E+00  0.00000000E+00  0.00000000E+00
  0.00000000E+00  0.00000000E+00  0.00000000E+00
  0.00000000E+00  0.00000000E+00  0.00000000E+00
  0.00000000E+00  0.00000000E+00  0.00000000E+00
  0.00000000E+00  0.00000000E+00  0.00000000E+00
  0.00000000E+00  0.00000000E+00  0.00000000E+00
  0.00000000E+00  0.00000000E+00  0.00000000E+00
  0.00000000E+00  0.00000000E+00  0.00000000E+00
  0.00000000E+00  0.00000000E+00  0.00000000E+00
  0.00000000E+00  0.00000000E+00  0.00000000E+00
  0.00000000E+00  0.00000000E+00  0.00000000E+00
  0.00000000E+00  0.00000000E+00  0.00000000E+00
  0.00000000E+00  0.00000000E+00  0.00000000E+00
  0.00000000E+00  0.00000000E+00  0.00000000E+00
  0.00000000E+00  0.00000000E+00  0.00000000E+00
  0.00000000E+00  0.00000000E+00  0.00000000E+00
  0.00000000E+00  0.00000000E+00  0.00000000E+00
  0.00000000E+00  0.00000000E+00  0.00000000E+00
  0.00000000E+00  0.00000000E+00  0.00000000E+00
  0.00000000E+00  0.00000000E+00  0.00000000E+00
  0.00000000E+00  0.00000000E+00  0.00000000E+00
  0.00000000E+00  0.00000000E+00  0.00000000E+00
  0.00000000E+00  0.00000000E+00  0.00000000E+00
  0.00000000E+00  0.00000000E+00  0.00000000E+00
  0.00000000E+00  0.00000000E+00  0.00000000E+00
  0.00000000E+00  0.00000000E+00  0.00000000E+00
  0.00000000E+00  0.00000000E+00  0.00000000E+00
  0.00000000E+00  0.00000000E+00  0.00000000E+00
  0.00000000E+00  0.00000000E+00  0.00000000E+00
  0.00000000E+00  0.00000000E+00  0.00000000E+00
  0.00000000E+00  0.00000000E+00  0.00000000E+00
  0.00000000E+00  0.00000000E+00  0.00000000E+00
  0.00000000E+00  0.00000000E+00  0.00000000E+00
  0.00000000E+00  0.00000000E+00  0.00000000E+00
  0.00000000E+00  0.00000000E+00  0.00000000E+00
  0.00000000E+00  0.00000000E+00  0.00000000E+00
  0.00000000E+00  0.00000000E+00  0.00000000E+00
  0.00000000E+00  0.00000000E+00  0.00000000E+00
  0.00000000E+00  0.00000000E+00  0.00000000E+00
  0.00000000E+00  0.00000000E+00  0.00000000E+00
  0.00000000E+00  0.00000000E+00  0.00000000E+00
  0.00000000E+00  0.00000000E+00  0.00000000E+00
  0.00000000E+00  0.00000000E+00  0.00000000E+00
  0.00000000E+00  0.00000000E+00  0.00000000E+00
  0.00000000E+00  0.00000000E+00  0.00000000E+00
  0.00000000E+00  0.00000000E+00  0.00000000E+00
  0.00000000E+00  0.00000000E+00  0.00000000E+00
  0.00000000E+00  0.00000000E+00  0.00000000E+00
  0.00000000E+00  0.00000000E+00  0.00000000E+00
  0.00000000E+00  0.00000000E+00  0.00000000E+00
  0.00000000E+00  0.00000000E+00  0.00000000E+00
  0.00000000E+00  0.00000000E+00  0.00000000E+00
  0.00000000E+00  0.00000000E+00  0.00000000E+00
  0.00000000E+00  0.00000000E+00  0.00000000E+00
  0.00000000E+00  0.00000000E+00  0.00000000E+00
  0.00000000E+00  0.00000000E+00  0.00000000E+00
  0.00000000E+00  0.00000000E+00  0.00000000E+00
  0.00000000E+00  0.00000000E+00  0.00000000E+00
  0.00000000E+00  0.00000000E+00  0.00000000E+00
  0.00000000E+00  0.00000000E+00  0.00000000E+00
  0.00000000E+00  0.00000000E+00  0.00000000E+00
  0.00000000E+00  0.00000000E+00  0.00000000E+00
  0.00000000E+00  0.00000000E+00  0.00000000E+00
  0.00000000E+00  0.00000000E+00  0.00000000E+00
  0.00000000E+00  0.00000000E+00  0.00000000E+00
  0.00000000E+00  0.00000000E+00  0.00000000E+00
  0.00000000E+00  0.00000000E+00  0.00000000E+00
  0.00000000E+00  0.00000000E+00  0.00000000E+00
  0.00000000E+00  0.00000000E+00  0.00000000E+00
  0.00000000E+00  0.00000000E+00  0.00000000E+00
  0.00000000E+00  0.00000000E+00  0.00000000E+00
  0.00000000E+00  0.00000000E+00  0.00000000E+00
  0.00000000E+00  0.00000000E+00  0.00000000E+00
  0.00000000E+00  0.00000000E+00  0.00000000E+00
  0.00000000E+00  0.00000000E+00  0.00000000E+00
  0.00000000E+00  0.00000000E+00  0.00000000E+00
  0.00000000E+00  0.00000000E+00  0.00000000E+00
  0.00000000E+00  0.00000000E+00  0.00000000E+00
  0.00000000E+00  0.00000000E+00  0.00000000E+00
  0.00000000E+00  0.00000000E+00  0.00000000E+00
  0.00000000E+00  0.00000000E+00  0.00000000E+00
