Cu4                                     
   1.00000000000000     
     4.7009559099627074    0.0000000000000000    0.0000000000000002
    -0.0000000000000003    4.7009559099627083    0.0000000000000002
     0.0000000000000000    0.0000000000000000    3.5774306700000000
   Cu
     4
Direct
 -0.0000000000000000  0.0000000000000000  0.0000000000000000
  0.0000000000000000  0.5000000000000000  0.5000000000000000
  0.5000000000000000 -0.0000000000000000  0.5000000000000000
  0.5000000000000000  0.5000000000000000 -0.0000000000000000
 
  0.00000000E+00  0.00000000E+00  0.00000000E+00
  0.00000000E+00  0.00000000E+00  0.00000000E+00
  0.00000000E+00  0.00000000E+00  0.00000000E+00
  0.00000000E+00  0.00000000E+00  0.00000000E+00
