K2 V8 Zn1 O19                           
    1.000000000000000     
    11.8654779999999995    0.0000000000000000   -0.0247010000000000
     0.0000000000000000    3.7326980000000001    0.0000000000000000
     0.0000000000000000    0.0000000000000000    9.3174469999999996
   Zn   K    V    O 
     1     2     8    19
Direct
  0.0514924179210796  0.5000000000000000  0.0597677059358051
  0.4321895861003719  0.0000000000000000  0.5242427017164966
  0.1092411907731142  0.5000000000000000  0.4577938836586217
  0.0700515594792918  0.0000000000000000  0.8059672505267121
  0.9189375701250202  0.0000000000000000  0.2271748627891511
  0.5716793966422670  0.5000000000000000  0.8407471161927229
  0.4362701046772992  0.5000000000000000  0.1434779950129645
  0.7722856600762196  0.0000000000000000  0.9168969717116555
  0.2414995629459571  0.0000000000000000  0.1640198412375113
  0.2702976088504551  0.5000000000000000  0.8391999481663289
  0.7246826032904353  0.5000000000000000  0.1865779334653635
  0.6120587863031416  0.0000000000000000  0.8637454826888322
  0.4020313455079497  0.0000000000000000  0.1172831374746102
  0.0932052899887127  0.5000000000000000  0.8601626383092766
  0.9005992031931046  0.5000000000000000  0.1669464076333637
  0.9146013013304718  0.0000000000000000  0.8778075909862129
  0.0702320188474899  0.0000000000000000  0.1356750154973105
  0.4286847143340488  0.5000000000000000  0.8974952012478388
  0.5785594485351440  0.5000000000000000  0.0968913063913511
  0.2297013485159425  0.0000000000000000  0.8827955769352039
  0.7604174773693483  0.0000000000000000  0.1267390888574210
  0.7382000411453273  0.5000000000000000  0.9008828252773177
  0.2558108204084168  0.5000000000000000  0.1010142644270365
  0.0668475607525286  0.0000000000000000  0.6322999553104527
  0.9331128619438946  0.0000000000000000  0.3995942039404703
  0.5604962515064570  0.5000000000000000  0.6669770214704013
  0.4409024287421878  0.5000000000000000  0.3182685064382361
  0.2400574915632503  0.0000000000000000  0.3407350109882272
  0.2895190966123194  0.5000000000000000  0.6639621097082087
  0.7002153953758756  0.5000000000000000  0.3562481867456387
 
  0.00000000E+00  0.00000000E+00  0.00000000E+00
  0.00000000E+00  0.00000000E+00  0.00000000E+00
  0.00000000E+00  0.00000000E+00  0.00000000E+00
  0.00000000E+00  0.00000000E+00  0.00000000E+00
  0.00000000E+00  0.00000000E+00  0.00000000E+00
  0.00000000E+00  0.00000000E+00  0.00000000E+00
  0.00000000E+00  0.00000000E+00  0.00000000E+00
  0.00000000E+00  0.00000000E+00  0.00000000E+00
  0.00000000E+00  0.00000000E+00  0.00000000E+00
  0.00000000E+00  0.00000000E+00  0.00000000E+00
  0.00000000E+00  0.00000000E+00  0.00000000E+00
  0.00000000E+00  0.00000000E+00  0.00000000E+00
  0.00000000E+00  0.00000000E+00  0.00000000E+00
  0.00000000E+00  0.00000000E+00  0.00000000E+00
  0.00000000E+00  0.00000000E+00  0.00000000E+00
  0.00000000E+00  0.00000000E+00  0.00000000E+00
  0.00000000E+00  0.00000000E+00  0.00000000E+00
  0.00000000E+00  0.00000000E+00  0.00000000E+00
  0.00000000E+00  0.00000000E+00  0.00000000E+00
  0.00000000E+00  0.00000000E+00  0.00000000E+00
  0.00000000E+00  0.00000000E+00  0.00000000E+00
  0.00000000E+00  0.00000000E+00  0.00000000E+00
  0.00000000E+00  0.00000000E+00  0.00000000E+00
  0.00000000E+00  0.00000000E+00  0.00000000E+00
  0.00000000E+00  0.00000000E+00  0.00000000E+00
  0.00000000E+00  0.00000000E+00  0.00000000E+00
  0.00000000E+00  0.00000000E+00  0.00000000E+00
  0.00000000E+00  0.00000000E+00  0.00000000E+00
  0.00000000E+00  0.00000000E+00  0.00000000E+00
  0.00000000E+00  0.00000000E+00  0.00000000E+00
