K2 V8 Zn1 O20                           
    1.000000000000000     
    11.7192980000000002    0.0000000000000000   -0.3614940000000000
     0.0000000000000000    3.7000649999999999    0.0000000000000000
     0.0000000000000000    0.0000000000000000    9.3907360000000004
   Zn   K    V    O 
     1     2     8    20
Direct
  0.0179736741871616  0.5000000000000000  0.0363759629110446
  0.4338830028821664  0.0000000000000000  0.5289669111929368
  0.1104185281326977  0.5000000000000000  0.4593097414718560
  0.0739871573434141  0.0000000000000000  0.8061059866345085
  0.9172420377296356  0.0000000000000000  0.2306852949582385
  0.5733551599319399  0.5000000000000000  0.8488616699898217
  0.4319228408726511  0.5000000000000000  0.1466936242762370
  0.7793551067305994  0.0000000000000000  0.8363832905175898
  0.2357130910265620  0.0000000000000000  0.1625554963511485
  0.2721918725422137  0.5000000000000000  0.8387648669012828
  0.7200196040036830  0.5000000000000000  0.1903363078732934
  0.6122211535793944  0.0000000000000000  0.8776192886303691
  0.4050565123543927  0.0000000000000000  0.1216683704156806
  0.0968777846947835  0.5000000000000000  0.8604798821228988
  0.8920260573321334  0.5000000000000000  0.1718822434623200
  0.9257762513929498  0.0000000000000000  0.9011107164521649
  0.0662108400780240  0.0000000000000000  0.1323636149870875
  0.4299078778295046  0.5000000000000000  0.9065052946821147
  0.5838259595441575  0.5000000000000000  0.0988405539240574
  0.2350738728649565  0.0000000000000000  0.8871637906831622
  0.7535552953788288  0.0000000000000000  0.1585646312299416
  0.7476414664876303  0.5000000000000000  0.8854128383865649
  0.2618422944125604  0.5000000000000000  0.1062372117212755
  0.0654326444103393  0.0000000000000000  0.6336444104847310
  0.9378391745055303  0.0000000000000000  0.4012757677219457
  0.5565784876289619  0.5000000000000000  0.6764905533713329
  0.4469264453084992  0.5000000000000000  0.3191879539403646
  0.7834599696502890  0.0000000000000000  0.6672484005832755
  0.2413507956940262  0.0000000000000000  0.3381449124398684
  0.2915459642093028  0.5000000000000000  0.6653797323401469
  0.6936462201181658  0.5000000000000000  0.3557406793427322
 
  0.00000000E+00  0.00000000E+00  0.00000000E+00
  0.00000000E+00  0.00000000E+00  0.00000000E+00
  0.00000000E+00  0.00000000E+00  0.00000000E+00
  0.00000000E+00  0.00000000E+00  0.00000000E+00
  0.00000000E+00  0.00000000E+00  0.00000000E+00
  0.00000000E+00  0.00000000E+00  0.00000000E+00
  0.00000000E+00  0.00000000E+00  0.00000000E+00
  0.00000000E+00  0.00000000E+00  0.00000000E+00
  0.00000000E+00  0.00000000E+00  0.00000000E+00
  0.00000000E+00  0.00000000E+00  0.00000000E+00
  0.00000000E+00  0.00000000E+00  0.00000000E+00
  0.00000000E+00  0.00000000E+00  0.00000000E+00
  0.00000000E+00  0.00000000E+00  0.00000000E+00
  0.00000000E+00  0.00000000E+00  0.00000000E+00
  0.00000000E+00  0.00000000E+00  0.00000000E+00
  0.00000000E+00  0.00000000E+00  0.00000000E+00
  0.00000000E+00  0.00000000E+00  0.00000000E+00
  0.00000000E+00  0.00000000E+00  0.00000000E+00
  0.00000000E+00  0.00000000E+00  0.00000000E+00
  0.00000000E+00  0.00000000E+00  0.00000000E+00
  0.00000000E+00  0.00000000E+00  0.00000000E+00
  0.00000000E+00  0.00000000E+00  0.00000000E+00
  0.00000000E+00  0.00000000E+00  0.00000000E+00
  0.00000000E+00  0.00000000E+00  0.00000000E+00
  0.00000000E+00  0.00000000E+00  0.00000000E+00
  0.00000000E+00  0.00000000E+00  0.00000000E+00
  0.00000000E+00  0.00000000E+00  0.00000000E+00
  0.00000000E+00  0.00000000E+00  0.00000000E+00
  0.00000000E+00  0.00000000E+00  0.00000000E+00
  0.00000000E+00  0.00000000E+00  0.00000000E+00
  0.00000000E+00  0.00000000E+00  0.00000000E+00
