Na2 Ti64 Cu64 S2                        
   1.00000000000000     
    12.5468749601132661    0.0000000000000000   -0.0023845427473836
     6.2718613598715018    8.6718031553237864    0.3861000546476283
     0.0000000000000000    0.0000000000000000   34.7217897683016261
   Na   Ti   Cu   S 
     2    64    64     2
Selective dynamics
Direct
  0.1101669762602654  0.8919038954619604  0.7983346226197202   T   T   T
  0.4576142811723760  0.2720022389715133  0.7895187349814485   T   T   T
  0.3164425933806569  0.2395664277010923  0.3457212966903285   F   F   F
  0.8164425933806569  0.2395664277010923  0.3457212966903285   F   F   F
  0.4414425933806569  0.4895664277010923  0.4082212966903285   F   F   F
  0.9414425933806569  0.4895664277010923  0.4082212966903285   F   F   F
  0.0664425933806569  0.7395664277010923  0.4707212966903285   F   F   F
  0.5664425933806569  0.7395664277010923  0.4707212966903285   F   F   F
  0.1914425933806569  0.9895664277010923  0.2832212966903285   F   F   F
  0.6914425933806569  0.9895664277010923  0.2832212966903285   F   F   F
  0.0572832138505461  0.0078851867613068  0.4661416069252695   F   F   F
  0.5572832138505461  0.0078851867613068  0.4661416069252695   F   F   F
  0.1822832138505461  0.2578851867613068  0.2786416069252695   F   F   F
  0.6822832138505461  0.2578851867613068  0.2786416069252695   F   F   F
  0.3072832138505461  0.5078851867613068  0.3411416069252695   F   F   F
  0.8072832138505461  0.5078851867613068  0.3411416069252695   F   F   F
  0.4322832138505461  0.7578851867613068  0.4036416069252695   F   F   F
  0.9322832138505461  0.7578851867613068  0.4036416069252695   F   F   F
  0.4427167861494539  0.9921148132386861  0.2838583930747305   F   F   F
  0.9427167861494539  0.9921148132386861  0.2838583930747305   F   F   F
  0.0677167861494539  0.2421148132386861  0.3463583930747305   F   F   F
  0.5677167861494539  0.2421148132386861  0.3463583930747305   F   F   F
  0.1927167861494539  0.4921148132386861  0.4088583930747305   F   F   F
  0.6927167861494539  0.4921148132386861  0.4088583930747305   F   F   F
  0.3177167861494539  0.7421148132386861  0.4713583930747305   F   F   F
  0.8177167861494539  0.7421148132386861  0.4713583930747305   F   F   F
  0.1835574066193431  0.7604335722989077  0.4042787033096715   F   F   F
  0.6835574066193431  0.7604335722989077  0.4042787033096715   F   F   F
  0.3085574066193431  0.0104335722989077  0.4667787033096715   F   F   F
  0.8085574066193431  0.0104335722989077  0.4667787033096715   F   F   F
  0.4335574066193431  0.2604335722989077  0.2792787033096715   F   F   F
  0.9335574066193431  0.2604335722989077  0.2792787033096715   F   F   F
  0.0585574066193431  0.5104335722989077  0.3417787033096715   F   F   F
  0.5585574066193431  0.5104335722989077  0.3417787033096715   F   F   F
  0.3164425933806569  0.2395664277010923  0.5957212966903285   F   F   F
  0.8164425933806569  0.2395664277010923  0.5957212966903285   F   F   F
  0.4417284703553797  0.4926168602364843  0.6586935924722024   T   T   T
  0.9385077415054189  0.4974429966362748  0.6594901165705019   T   T   T
  0.0743582538125867  0.7405237656158504  0.7215049823792485   T   T   T
  0.5624965877433495  0.7463543847422256  0.7194531927482736   T   T   T
  0.1914425933806569  0.9895664277010923  0.5332212966903285   F   F   F
  0.6914425933806569  0.9895664277010923  0.5332212966903285   F   F   F
  0.0589790391008204  0.0081789581320520  0.7079648721159110   T   T   T
  0.5557310355199626  0.0119661351819737  0.7122818926551048   T   T   T
  0.1822832138505461  0.2578851867613068  0.5286416069252695   F   F   F
  0.6822832138505461  0.2578851867613068  0.5286416069252695   F   F   F
  0.3072832138505461  0.5078851867613068  0.5911416069252695   F   F   F
  0.8072832138505461  0.5078851867613068  0.5911416069252695   F   F   F
  0.4313251259418232  0.7640589404143918  0.6530276536500447   T   T   T
  0.9325824913983478  0.7624234581203360  0.6540686303535939   T   T   T
  0.4427167861494539  0.9921148132386861  0.5338583930747305   F   F   F
  0.9427167861494539  0.9921148132386861  0.5338583930747305   F   F   F
  0.0677167861494539  0.2421148132386861  0.5963583930747305   F   F   F
  0.5677167861494539  0.2421148132386861  0.5963583930747305   F   F   F
  0.1915312809271397  0.4948664039965368  0.6597312168871180   T   T   T
  0.6878152579772792  0.4995044249162064  0.6605484752420820   T   T   T
  0.3209499478133653  0.7404143777423332  0.7217986652517258   T   T   T
  0.8161746604012821  0.7453067307180549  0.7218038788278196   T   T   T
  0.1856946353974769  0.7603886082747585  0.6536263293235410   T   T   T
  0.6804372014265428  0.7678659996214865  0.6542946952989729   T   T   T
  0.3021947082674794  0.0173292973786212  0.7162946727810177   T   T   T
  0.8118376964262858  0.0166697237650234  0.7212766187959931   T   T   T
  0.4335574066193431  0.2604335722989077  0.5292787033096715   F   F   F
  0.9335574066193431  0.2604335722989077  0.5292787033096715   F   F   F
  0.0585574066193431  0.5104335722989077  0.5917787033096715   F   F   F
  0.5585574066193431  0.5104335722989077  0.5917787033096715   F   F   F
  0.4397259614144460  0.2396631623782639  0.4073629807072265   F   F   F
  0.9397259614144460  0.2396631623782639  0.4073629807072265   F   F   F
  0.0647259614144460  0.4896631623782639  0.4698629807072265   F   F   F
  0.5647259614144460  0.4896631623782639  0.4698629807072265   F   F   F
  0.1897259614144460  0.7396631623782639  0.2823629807072265   F   F   F
  0.6897259614144460  0.7396631623782639  0.2823629807072265   F   F   F
  0.3147259614144460  0.9896631623782639  0.3448629807072265   F   F   F
  0.8147259614144460  0.9896631623782639  0.3448629807072265   F   F   F
  0.4323315811891320  0.0044519228288920  0.4036657905945660   F   F   F
  0.9323315811891320  0.0044519228288920  0.4036657905945660   F   F   F
  0.0573315811891320  0.2544519228288920  0.4661657905945660   F   F   F
  0.5573315811891320  0.2544519228288920  0.4661657905945660   F   F   F
  0.1823315811891320  0.5044519228288920  0.2786657905945660   F   F   F
  0.6823315811891320  0.5044519228288920  0.2786657905945660   F   F   F
  0.3073315811891320  0.7544519228288920  0.3411657905945660   F   F   F
  0.8073315811891320  0.7544519228288920  0.3411657905945660   F   F   F
  0.0676684188108680  0.9955480771711080  0.3463342094054340   F   F   F
  0.5676684188108680  0.9955480771711080  0.3463342094054340   F   F   F
  0.1926684188108680  0.2455480771711080  0.4088342094054340   F   F   F
  0.6926684188108680  0.2455480771711080  0.4088342094054340   F   F   F
  0.3176684188108680  0.4955480771711080  0.4713342094054340   F   F   F
  0.8176684188108680  0.4955480771711080  0.4713342094054340   F   F   F
  0.4426684188108680  0.7455480771711080  0.2838342094054340   F   F   F
  0.9426684188108680  0.7455480771711080  0.2838342094054340   F   F   F
  0.0602740385855540  0.7603368376217361  0.3426370192927735   F   F   F
  0.5602740385855540  0.7603368376217361  0.3426370192927735   F   F   F
  0.1852740385855540  0.0103368376217361  0.4051370192927735   F   F   F
  0.6852740385855540  0.0103368376217361  0.4051370192927735   F   F   F
  0.3102740385855540  0.2603368376217361  0.4676370192927735   F   F   F
  0.8102740385855540  0.2603368376217361  0.4676370192927735   F   F   F
  0.4352740385855540  0.5103368376217361  0.2801370192927735   F   F   F
  0.9352740385855540  0.5103368376217361  0.2801370192927735   F   F   F
  0.4402455255289764  0.2396591638535305  0.6565155509187397   T   T   T
  0.9387583921837632  0.2430778541240755  0.6560146905171675   T   T   T
  0.0722694779720283  0.4809723077441967  0.7191851428990310   T   T   T
  0.5777055025788201  0.4774157164508819  0.7216150671917190   T   T   T
  0.1897259614144460  0.7396631623782639  0.5323629807072265   F   F   F
  0.6897259614144460  0.7396631623782639  0.5323629807072265   F   F   F
  0.3147259614144460  0.9896631623782639  0.5948629807072265   F   F   F
  0.8147259614144460  0.9896631623782639  0.5948629807072265   F   F   F
  0.4253450959710505  0.0100400815999086  0.6535830527300910   T   T   T
  0.9272514984115665  0.0077830032525770  0.6530379971651675   T   T   T
  0.0426161421159567  0.2611983568848537  0.7170945718813946   T   T   T
  0.5606727454884428  0.2502251687232102  0.7143119009728439   T   T   T
  0.1823315811891320  0.5044519228288920  0.5286657905945660   F   F   F
  0.6823315811891320  0.5044519228288920  0.5286657905945660   F   F   F
  0.3073315811891320  0.7544519228288920  0.5911657905945660   F   F   F
  0.8073315811891320  0.7544519228288920  0.5911657905945660   F   F   F
  0.0676684188108680  0.9955480771711080  0.5963342094054340   F   F   F
  0.5676684188108680  0.9955480771711080  0.5963342094054340   F   F   F
  0.1868435426345811  0.2495504647331697  0.6602734109774141   T   T   T
  0.6947479127264701  0.2491978414575634  0.6597287411041440   T   T   T
  0.3173539884533219  0.4884814206713826  0.7216631527986528   T   T   T
  0.8140236898720118  0.4999136096532885  0.7212904666070884   T   T   T
  0.4426684188108680  0.7455480771711080  0.5338342094054340   F   F   F
  0.9426684188108680  0.7455480771711080  0.5338342094054340   F   F   F
  0.0602740385855540  0.7603368376217361  0.5926370192927735   F   F   F
  0.5602740385855540  0.7603368376217361  0.5926370192927735   F   F   F
  0.1908462614396833  0.0111559092818582  0.6534418652719336   T   T   T
  0.6881509153877056  0.0140937697468230  0.6562510049854886   T   T   T
  0.3147512300959147  0.2577130018266577  0.7169729500586618   T   T   T
  0.8222212889952087  0.2592420368744051  0.7184525294716395   T   T   T
  0.4352740385855540  0.5103368376217361  0.5301370192927735   F   F   F
  0.9352740385855540  0.5103368376217361  0.5301370192927735   F   F   F
  0.3308284941640090  0.5998925948612149  0.7785557816121943   T   T   T
 -0.0924367519207832  0.8208112710993096  0.7719982826168643   T   T   T
 
  0.00000000E+00  0.00000000E+00  0.00000000E+00
  0.00000000E+00  0.00000000E+00  0.00000000E+00
  0.00000000E+00  0.00000000E+00  0.00000000E+00
  0.00000000E+00  0.00000000E+00  0.00000000E+00
  0.00000000E+00  0.00000000E+00  0.00000000E+00
  0.00000000E+00  0.00000000E+00  0.00000000E+00
  0.00000000E+00  0.00000000E+00  0.00000000E+00
  0.00000000E+00  0.00000000E+00  0.00000000E+00
  0.00000000E+00  0.00000000E+00  0.00000000E+00
  0.00000000E+00  0.00000000E+00  0.00000000E+00
  0.00000000E+00  0.00000000E+00  0.00000000E+00
  0.00000000E+00  0.00000000E+00  0.00000000E+00
  0.00000000E+00  0.00000000E+00  0.00000000E+00
  0.00000000E+00  0.00000000E+00  0.00000000E+00
  0.00000000E+00  0.00000000E+00  0.00000000E+00
  0.00000000E+00  0.00000000E+00  0.00000000E+00
  0.00000000E+00  0.00000000E+00  0.00000000E+00
  0.00000000E+00  0.00000000E+00  0.00000000E+00
  0.00000000E+00  0.00000000E+00  0.00000000E+00
  0.00000000E+00  0.00000000E+00  0.00000000E+00
  0.00000000E+00  0.00000000E+00  0.00000000E+00
  0.00000000E+00  0.00000000E+00  0.00000000E+00
  0.00000000E+00  0.00000000E+00  0.00000000E+00
  0.00000000E+00  0.00000000E+00  0.00000000E+00
  0.00000000E+00  0.00000000E+00  0.00000000E+00
  0.00000000E+00  0.00000000E+00  0.00000000E+00
  0.00000000E+00  0.00000000E+00  0.00000000E+00
  0.00000000E+00  0.00000000E+00  0.00000000E+00
  0.00000000E+00  0.00000000E+00  0.00000000E+00
  0.00000000E+00  0.00000000E+00  0.00000000E+00
  0.00000000E+00  0.00000000E+00  0.00000000E+00
  0.00000000E+00  0.00000000E+00  0.00000000E+00
  0.00000000E+00  0.00000000E+00  0.00000000E+00
  0.00000000E+00  0.00000000E+00  0.00000000E+00
  0.00000000E+00  0.00000000E+00  0.00000000E+00
  0.00000000E+00  0.00000000E+00  0.00000000E+00
  0.00000000E+00  0.00000000E+00  0.00000000E+00
  0.00000000E+00  0.00000000E+00  0.00000000E+00
  0.00000000E+00  0.00000000E+00  0.00000000E+00
  0.00000000E+00  0.00000000E+00  0.00000000E+00
  0.00000000E+00  0.00000000E+00  0.00000000E+00
  0.00000000E+00  0.00000000E+00  0.00000000E+00
  0.00000000E+00  0.00000000E+00  0.00000000E+00
  0.00000000E+00  0.00000000E+00  0.00000000E+00
  0.00000000E+00  0.00000000E+00  0.00000000E+00
  0.00000000E+00  0.00000000E+00  0.00000000E+00
  0.00000000E+00  0.00000000E+00  0.00000000E+00
  0.00000000E+00  0.00000000E+00  0.00000000E+00
  0.00000000E+00  0.00000000E+00  0.00000000E+00
  0.00000000E+00  0.00000000E+00  0.00000000E+00
  0.00000000E+00  0.00000000E+00  0.00000000E+00
  0.00000000E+00  0.00000000E+00  0.00000000E+00
  0.00000000E+00  0.00000000E+00  0.00000000E+00
  0.00000000E+00  0.00000000E+00  0.00000000E+00
  0.00000000E+00  0.00000000E+00  0.00000000E+00
  0.00000000E+00  0.00000000E+00  0.00000000E+00
  0.00000000E+00  0.00000000E+00  0.00000000E+00
  0.00000000E+00  0.00000000E+00  0.00000000E+00
  0.00000000E+00  0.00000000E+00  0.00000000E+00
  0.00000000E+00  0.00000000E+00  0.00000000E+00
  0.00000000E+00  0.00000000E+00  0.00000000E+00
  0.00000000E+00  0.00000000E+00  0.00000000E+00
  0.00000000E+00  0.00000000E+00  0.00000000E+00
  0.00000000E+00  0.00000000E+00  0.00000000E+00
  0.00000000E+00  0.00000000E+00  0.00000000E+00
  0.00000000E+00  0.00000000E+00  0.00000000E+00
  0.00000000E+00  0.00000000E+00  0.00000000E+00
  0.00000000E+00  0.00000000E+00  0.00000000E+00
  0.00000000E+00  0.00000000E+00  0.00000000E+00
  0.00000000E+00  0.00000000E+00  0.00000000E+00
  0.00000000E+00  0.00000000E+00  0.00000000E+00
  0.00000000E+00  0.00000000E+00  0.00000000E+00
  0.00000000E+00  0.00000000E+00  0.00000000E+00
  0.00000000E+00  0.00000000E+00  0.00000000E+00
  0.00000000E+00  0.00000000E+00  0.00000000E+00
  0.00000000E+00  0.00000000E+00  0.00000000E+00
  0.00000000E+00  0.00000000E+00  0.00000000E+00
  0.00000000E+00  0.00000000E+00  0.00000000E+00
  0.00000000E+00  0.00000000E+00  0.00000000E+00
  0.00000000E+00  0.00000000E+00  0.00000000E+00
  0.00000000E+00  0.00000000E+00  0.00000000E+00
  0.00000000E+00  0.00000000E+00  0.00000000E+00
  0.00000000E+00  0.00000000E+00  0.00000000E+00
  0.00000000E+00  0.00000000E+00  0.00000000E+00
  0.00000000E+00  0.00000000E+00  0.00000000E+00
  0.00000000E+00  0.00000000E+00  0.00000000E+00
  0.00000000E+00  0.00000000E+00  0.00000000E+00
  0.00000000E+00  0.00000000E+00  0.00000000E+00
  0.00000000E+00  0.00000000E+00  0.00000000E+00
  0.00000000E+00  0.00000000E+00  0.00000000E+00
  0.00000000E+00  0.00000000E+00  0.00000000E+00
  0.00000000E+00  0.00000000E+00  0.00000000E+00
  0.00000000E+00  0.00000000E+00  0.00000000E+00
  0.00000000E+00  0.00000000E+00  0.00000000E+00
  0.00000000E+00  0.00000000E+00  0.00000000E+00
  0.00000000E+00  0.00000000E+00  0.00000000E+00
  0.00000000E+00  0.00000000E+00  0.00000000E+00
  0.00000000E+00  0.00000000E+00  0.00000000E+00
  0.00000000E+00  0.00000000E+00  0.00000000E+00
  0.00000000E+00  0.00000000E+00  0.00000000E+00
  0.00000000E+00  0.00000000E+00  0.00000000E+00
  0.00000000E+00  0.00000000E+00  0.00000000E+00
  0.00000000E+00  0.00000000E+00  0.00000000E+00
  0.00000000E+00  0.00000000E+00  0.00000000E+00
  0.00000000E+00  0.00000000E+00  0.00000000E+00
  0.00000000E+00  0.00000000E+00  0.00000000E+00
  0.00000000E+00  0.00000000E+00  0.00000000E+00
  0.00000000E+00  0.00000000E+00  0.00000000E+00
  0.00000000E+00  0.00000000E+00  0.00000000E+00
  0.00000000E+00  0.00000000E+00  0.00000000E+00
  0.00000000E+00  0.00000000E+00  0.00000000E+00
  0.00000000E+00  0.00000000E+00  0.00000000E+00
  0.00000000E+00  0.00000000E+00  0.00000000E+00
  0.00000000E+00  0.00000000E+00  0.00000000E+00
  0.00000000E+00  0.00000000E+00  0.00000000E+00
  0.00000000E+00  0.00000000E+00  0.00000000E+00
  0.00000000E+00  0.00000000E+00  0.00000000E+00
  0.00000000E+00  0.00000000E+00  0.00000000E+00
  0.00000000E+00  0.00000000E+00  0.00000000E+00
  0.00000000E+00  0.00000000E+00  0.00000000E+00
  0.00000000E+00  0.00000000E+00  0.00000000E+00
  0.00000000E+00  0.00000000E+00  0.00000000E+00
  0.00000000E+00  0.00000000E+00  0.00000000E+00
  0.00000000E+00  0.00000000E+00  0.00000000E+00
  0.00000000E+00  0.00000000E+00  0.00000000E+00
  0.00000000E+00  0.00000000E+00  0.00000000E+00
  0.00000000E+00  0.00000000E+00  0.00000000E+00
  0.00000000E+00  0.00000000E+00  0.00000000E+00
  0.00000000E+00  0.00000000E+00  0.00000000E+00
  0.00000000E+00  0.00000000E+00  0.00000000E+00
  0.00000000E+00  0.00000000E+00  0.00000000E+00
  0.00000000E+00  0.00000000E+00  0.00000000E+00
