Na2 Ni48 S8 O48                         
   1.00000000000000     
     8.5248712981544497    0.0000000000000000    0.0000000000000005
    -0.0000000000000005    8.5248712981544497    0.0000000000000005
     0.0000000000000000    0.0000000000000000   25.5746138944633472
   Na   Ni   S    O 
     2    48     8    48
Selective dynamics
Direct
  0.2159873076256076  0.3277304351443701  0.9036634507241891   T   T   T
  0.4998825196897965  0.0705677045709267  0.9321585595772635   T   T   T
  0.0000000000000000  0.0000000000000000  0.3750000000000000   F   F   F
  0.0000000000000000  0.5000000000000000  0.3750000000000000   F   F   F
  0.5000000000000000  0.0000000000000000  0.3750000000000000   F   F   F
  0.5000000000000000  0.5000000000000000  0.3750000000000000   F   F   F
  0.2500000000000000  0.2500000000000000  0.3750000000000000   F   F   F
  0.2500000000000000  0.7500000000000000  0.3750000000000000   F   F   F
  0.7500000000000000  0.2500000000000000  0.3750000000000000   F   F   F
  0.7500000000000000  0.7500000000000000  0.3750000000000000   F   F   F
  0.0000000000000000  0.2500000000000000  0.2916666666666643   F   F   F
  0.0000000000000000  0.7500000000000000  0.2916666666666643   F   F   F
  0.5000000000000000  0.2500000000000000  0.2916666666666643   F   F   F
  0.5000000000000000  0.7500000000000000  0.2916666666666643   F   F   F
  0.2500000000000000  0.0000000000000000  0.2916666666666643   F   F   F
  0.2500000000000000  0.5000000000000000  0.2916666666666643   F   F   F
  0.7500000000000000  0.0000000000000000  0.2916666666666643   F   F   F
  0.7500000000000000  0.5000000000000000  0.2916666666666643   F   F   F
  0.0000000000000000  0.0000000000000000  0.5416666666666643   F   F   F
  0.0000000000000000  0.5000000000000000  0.5416666666666643   F   F   F
  0.5000000000000000  0.0000000000000000  0.5416666666666643   F   F   F
  0.5000000000000000  0.5000000000000000  0.5416666666666643   F   F   F
  0.2500000000000000  0.2500000000000000  0.5416666666666643   F   F   F
  0.2500000000000000  0.7500000000000000  0.5416666666666643   F   F   F
  0.7500000000000000  0.2500000000000000  0.5416666666666643   F   F   F
  0.7500000000000000  0.7500000000000000  0.5416666666666643   F   F   F
  0.0000000000000000  0.2500000000000000  0.4583333333333357   F   F   F
  0.0000000000000000  0.7500000000000000  0.4583333333333357   F   F   F
  0.5000000000000000  0.2500000000000000  0.4583333333333357   F   F   F
  0.5000000000000000  0.7500000000000000  0.4583333333333357   F   F   F
  0.2500000000000000  0.0000000000000000  0.4583333333333357   F   F   F
  0.2500000000000000  0.5000000000000000  0.4583333333333357   F   F   F
  0.7500000000000000  0.0000000000000000  0.4583333333333357   F   F   F
  0.7500000000000000  0.5000000000000000  0.4583333333333357   F   F   F
  0.0012535250142111 -0.0049897482956214  0.7110406581255558   T   T   T
 -0.0007674699622497  0.4976677558470567  0.7072883849718904   T   T   T
  0.4828621105161603  0.0052128623765331  0.7198015844011170   T   T   T
  0.4955973740181823  0.5019740076143542  0.7218558110486137   T   T   T
  0.2574329786793914  0.2385539503026766  0.7164377674553386   T   T   T
  0.2480126587220392  0.7446419648657797  0.7068749741575057   T   T   T
  0.7504855652100472  0.2478592124310960  0.7078108920529781   T   T   T
  0.7452990301218235  0.7522628869521399  0.7071080402827802   T   T   T
  0.0008303840628361  0.2487061764817440  0.6272620698101955   T   T   T
 -0.0024472590549520  0.7489790014341120  0.6261445783184758   T   T   T
  0.4973361510983040  0.2512302156209037  0.6260792684242337   T   T   T
  0.4968288305329807  0.7511181185799896  0.6269303835228351   T   T   T
  0.2493235720518464  0.0015628050686411  0.6235501921470944   T   T   T
  0.2536276768637136  0.4953460901723454  0.6267155511135379   T   T   T
  0.7457262247975719  0.0020045381841994  0.6268911734061934   T   T   T
  0.7435587986935109  0.4991545866202741  0.6269352015210117   T   T   T
  0.1484214924619333  0.8852868817556816  0.8776483521035927   T   T   T
  0.3554128765607302  0.1253684958640589  0.7950021894517159   T   T   T
  0.4809703232917824  0.3866600286862259 -0.0366842996262821   T   T   T
  0.6569208372430049  0.4953117200270039  0.8503304031788586   T   T   T
  0.1312854536149873  0.0428839377566749  0.8162166520675148   T   T   T
  0.1794256936388064  0.0112162644686318  0.9453953370487683   T   T   T
  0.6155648899726281  0.5543410061466294  0.9268921662007297   T   T   T
  0.4464522345907128  0.5118380195676119  0.8094899680153052   T   T   T
  0.0000000000000000  0.0000000000000000  0.2916666666666643   F   F   F
  0.0000000000000000  0.5000000000000000  0.2916666666666643   F   F   F
  0.5000000000000000  0.0000000000000000  0.2916666666666643   F   F   F
  0.5000000000000000  0.5000000000000000  0.2916666666666643   F   F   F
  0.2500000000000000  0.2500000000000000  0.2916666666666643   F   F   F
  0.2500000000000000  0.7500000000000000  0.2916666666666643   F   F   F
  0.7500000000000000  0.2500000000000000  0.2916666666666643   F   F   F
  0.7500000000000000  0.7500000000000000  0.2916666666666643   F   F   F
  0.0000000000000000  0.2500000000000000  0.3750000000000000   F   F   F
  0.0000000000000000  0.7500000000000000  0.3750000000000000   F   F   F
  0.5000000000000000  0.2500000000000000  0.3750000000000000   F   F   F
  0.5000000000000000  0.7500000000000000  0.3750000000000000   F   F   F
  0.2500000000000000  0.0000000000000000  0.3750000000000000   F   F   F
  0.2500000000000000  0.5000000000000000  0.3750000000000000   F   F   F
  0.7500000000000000  0.0000000000000000  0.3750000000000000   F   F   F
  0.7500000000000000  0.5000000000000000  0.3750000000000000   F   F   F
  0.0000000000000000  0.0000000000000000  0.4583333333333357   F   F   F
  0.0000000000000000  0.5000000000000000  0.4583333333333357   F   F   F
  0.5000000000000000  0.0000000000000000  0.4583333333333357   F   F   F
  0.5000000000000000  0.5000000000000000  0.4583333333333357   F   F   F
  0.2500000000000000  0.2500000000000000  0.4583333333333357   F   F   F
  0.2500000000000000  0.7500000000000000  0.4583333333333357   F   F   F
  0.7500000000000000  0.2500000000000000  0.4583333333333357   F   F   F
  0.7500000000000000  0.7500000000000000  0.4583333333333357   F   F   F
  0.0000000000000000  0.2500000000000000  0.5416666666666643   F   F   F
  0.0000000000000000  0.7500000000000000  0.5416666666666643   F   F   F
  0.5000000000000000  0.2500000000000000  0.5416666666666643   F   F   F
  0.5000000000000000  0.7500000000000000  0.5416666666666643   F   F   F
  0.2500000000000000  0.0000000000000000  0.5416666666666643   F   F   F
  0.2500000000000000  0.5000000000000000  0.5416666666666643   F   F   F
  0.7500000000000000  0.0000000000000000  0.5416666666666643   F   F   F
  0.7500000000000000  0.5000000000000000  0.5416666666666643   F   F   F
 -0.0058786217164872  0.0010500605820670  0.6241539764998870   T   T   T
 -0.0015074602971077  0.5004054321018110  0.6252298604354721   T   T   T
  0.4994498718529345 -0.0004666873471715  0.6204328506059069   T   T   T
  0.4983017131749372  0.5015527489380911  0.6215366460962257   T   T   T
  0.2478182581483487  0.2506016936620607  0.6217298609269895   T   T   T
  0.2493085999241336  0.7481586095280446  0.6216172774658937   T   T   T
  0.7498643833040245  0.2499901867780967  0.6248193485028827   T   T   T
  0.7489359521935502  0.7514669929882360  0.6242818248112587   T   T   T
 -0.0028751710506525  0.2496157777584344  0.7073376492460328   T   T   T
 -0.0048480687592199  0.7499045053700443  0.7060542496190160   T   T   T
  0.5036242631613548  0.2521906112360812  0.7033240239931491   T   T   T
  0.4960738071125276  0.7568355326307914  0.7061275284403149   T   T   T
  0.2430548141032966 -0.0088439967671872  0.6990613303465886   T   T   T
  0.2452095550688597  0.5025742480409376  0.7057081565422726   T   T   T
  0.7428550384664792  0.0005821748667381  0.7080095896413576   T   T   T
  0.7489802032881024  0.5030949548424970  0.7066225538810661   T   T   T
 
  0.00000000E+00  0.00000000E+00  0.00000000E+00
  0.00000000E+00  0.00000000E+00  0.00000000E+00
  0.00000000E+00  0.00000000E+00  0.00000000E+00
  0.00000000E+00  0.00000000E+00  0.00000000E+00
  0.00000000E+00  0.00000000E+00  0.00000000E+00
  0.00000000E+00  0.00000000E+00  0.00000000E+00
  0.00000000E+00  0.00000000E+00  0.00000000E+00
  0.00000000E+00  0.00000000E+00  0.00000000E+00
  0.00000000E+00  0.00000000E+00  0.00000000E+00
  0.00000000E+00  0.00000000E+00  0.00000000E+00
  0.00000000E+00  0.00000000E+00  0.00000000E+00
  0.00000000E+00  0.00000000E+00  0.00000000E+00
  0.00000000E+00  0.00000000E+00  0.00000000E+00
  0.00000000E+00  0.00000000E+00  0.00000000E+00
  0.00000000E+00  0.00000000E+00  0.00000000E+00
  0.00000000E+00  0.00000000E+00  0.00000000E+00
  0.00000000E+00  0.00000000E+00  0.00000000E+00
  0.00000000E+00  0.00000000E+00  0.00000000E+00
  0.00000000E+00  0.00000000E+00  0.00000000E+00
  0.00000000E+00  0.00000000E+00  0.00000000E+00
  0.00000000E+00  0.00000000E+00  0.00000000E+00
  0.00000000E+00  0.00000000E+00  0.00000000E+00
  0.00000000E+00  0.00000000E+00  0.00000000E+00
  0.00000000E+00  0.00000000E+00  0.00000000E+00
  0.00000000E+00  0.00000000E+00  0.00000000E+00
  0.00000000E+00  0.00000000E+00  0.00000000E+00
  0.00000000E+00  0.00000000E+00  0.00000000E+00
  0.00000000E+00  0.00000000E+00  0.00000000E+00
  0.00000000E+00  0.00000000E+00  0.00000000E+00
  0.00000000E+00  0.00000000E+00  0.00000000E+00
  0.00000000E+00  0.00000000E+00  0.00000000E+00
  0.00000000E+00  0.00000000E+00  0.00000000E+00
  0.00000000E+00  0.00000000E+00  0.00000000E+00
  0.00000000E+00  0.00000000E+00  0.00000000E+00
  0.00000000E+00  0.00000000E+00  0.00000000E+00
  0.00000000E+00  0.00000000E+00  0.00000000E+00
  0.00000000E+00  0.00000000E+00  0.00000000E+00
  0.00000000E+00  0.00000000E+00  0.00000000E+00
  0.00000000E+00  0.00000000E+00  0.00000000E+00
  0.00000000E+00  0.00000000E+00  0.00000000E+00
  0.00000000E+00  0.00000000E+00  0.00000000E+00
  0.00000000E+00  0.00000000E+00  0.00000000E+00
  0.00000000E+00  0.00000000E+00  0.00000000E+00
  0.00000000E+00  0.00000000E+00  0.00000000E+00
  0.00000000E+00  0.00000000E+00  0.00000000E+00
  0.00000000E+00  0.00000000E+00  0.00000000E+00
  0.00000000E+00  0.00000000E+00  0.00000000E+00
  0.00000000E+00  0.00000000E+00  0.00000000E+00
  0.00000000E+00  0.00000000E+00  0.00000000E+00
  0.00000000E+00  0.00000000E+00  0.00000000E+00
  0.00000000E+00  0.00000000E+00  0.00000000E+00
  0.00000000E+00  0.00000000E+00  0.00000000E+00
  0.00000000E+00  0.00000000E+00  0.00000000E+00
  0.00000000E+00  0.00000000E+00  0.00000000E+00
  0.00000000E+00  0.00000000E+00  0.00000000E+00
  0.00000000E+00  0.00000000E+00  0.00000000E+00
  0.00000000E+00  0.00000000E+00  0.00000000E+00
  0.00000000E+00  0.00000000E+00  0.00000000E+00
  0.00000000E+00  0.00000000E+00  0.00000000E+00
  0.00000000E+00  0.00000000E+00  0.00000000E+00
  0.00000000E+00  0.00000000E+00  0.00000000E+00
  0.00000000E+00  0.00000000E+00  0.00000000E+00
  0.00000000E+00  0.00000000E+00  0.00000000E+00
  0.00000000E+00  0.00000000E+00  0.00000000E+00
  0.00000000E+00  0.00000000E+00  0.00000000E+00
  0.00000000E+00  0.00000000E+00  0.00000000E+00
  0.00000000E+00  0.00000000E+00  0.00000000E+00
  0.00000000E+00  0.00000000E+00  0.00000000E+00
  0.00000000E+00  0.00000000E+00  0.00000000E+00
  0.00000000E+00  0.00000000E+00  0.00000000E+00
  0.00000000E+00  0.00000000E+00  0.00000000E+00
  0.00000000E+00  0.00000000E+00  0.00000000E+00
  0.00000000E+00  0.00000000E+00  0.00000000E+00
  0.00000000E+00  0.00000000E+00  0.00000000E+00
  0.00000000E+00  0.00000000E+00  0.00000000E+00
  0.00000000E+00  0.00000000E+00  0.00000000E+00
  0.00000000E+00  0.00000000E+00  0.00000000E+00
  0.00000000E+00  0.00000000E+00  0.00000000E+00
  0.00000000E+00  0.00000000E+00  0.00000000E+00
  0.00000000E+00  0.00000000E+00  0.00000000E+00
  0.00000000E+00  0.00000000E+00  0.00000000E+00
  0.00000000E+00  0.00000000E+00  0.00000000E+00
  0.00000000E+00  0.00000000E+00  0.00000000E+00
  0.00000000E+00  0.00000000E+00  0.00000000E+00
  0.00000000E+00  0.00000000E+00  0.00000000E+00
  0.00000000E+00  0.00000000E+00  0.00000000E+00
  0.00000000E+00  0.00000000E+00  0.00000000E+00
  0.00000000E+00  0.00000000E+00  0.00000000E+00
  0.00000000E+00  0.00000000E+00  0.00000000E+00
  0.00000000E+00  0.00000000E+00  0.00000000E+00
  0.00000000E+00  0.00000000E+00  0.00000000E+00
  0.00000000E+00  0.00000000E+00  0.00000000E+00
  0.00000000E+00  0.00000000E+00  0.00000000E+00
  0.00000000E+00  0.00000000E+00  0.00000000E+00
  0.00000000E+00  0.00000000E+00  0.00000000E+00
  0.00000000E+00  0.00000000E+00  0.00000000E+00
  0.00000000E+00  0.00000000E+00  0.00000000E+00
  0.00000000E+00  0.00000000E+00  0.00000000E+00
  0.00000000E+00  0.00000000E+00  0.00000000E+00
  0.00000000E+00  0.00000000E+00  0.00000000E+00
  0.00000000E+00  0.00000000E+00  0.00000000E+00
  0.00000000E+00  0.00000000E+00  0.00000000E+00
  0.00000000E+00  0.00000000E+00  0.00000000E+00
  0.00000000E+00  0.00000000E+00  0.00000000E+00
  0.00000000E+00  0.00000000E+00  0.00000000E+00
  0.00000000E+00  0.00000000E+00  0.00000000E+00
