K2 V8 Zn1 O19                           
    1.000000000000000     
    11.8654779999999995    0.0000000000000000   -0.0247010000000000
     0.0000000000000000    3.7326980000000001    0.0000000000000000
     0.0000000000000000    0.0000000000000000    9.3174469999999996
   Zn   K    V    O 
     1     2     8    19
Direct
  0.9225385062624402  0.5000000000000000  0.9241358992605431
  0.4136999335052080  0.0000000000000000  0.5188678721408149
  0.1092855474942644  0.5000000000000000  0.4601109948105453
  0.0767704373401310  0.0000000000000000  0.8161929340761005
  0.9377103919720835  0.0000000000000000  0.1843760436208561
  0.5643605957842318  0.5000000000000000  0.8207667057379707
  0.4396862897728421  0.5000000000000000  0.1444902014522793
  0.7422224870982991  0.0000000000000000  0.9197944686854891
  0.2382827613364156  0.0000000000000000  0.1432937949557555
  0.2697743532329908  0.5000000000000000  0.8451686780355143
  0.7276762704553726  0.5000000000000000  0.2037066045024561
  0.5906390610052871  0.0000000000000000  0.8550325818420209
  0.4047836619438240  0.0000000000000000  0.1181895719155014
  0.0897501876216931  0.5000000000000000  0.8702183078565406
  0.8989746299849175  0.5000000000000000  0.1453231005042937
  0.9077409432798812  0.0000000000000000  0.8741733927662486
  0.0688582875528994  0.0000000000000000  0.1064428702895558
  0.4278478761804328  0.5000000000000000  0.8939822643915014
  0.5853239290814942  0.5000000000000000  0.1024020858515062
  0.2345499423215108  0.0000000000000000  0.8881161990456838
  0.7618463975338696  0.0000000000000000  0.1320429296727556
  0.7347657850925954  0.5000000000000000  0.8612842357531663
  0.2681428271436494  0.5000000000000000  0.0919541319419794
  0.0674604343729281  0.0000000000000000  0.6418951372760180
  0.9545038691344681  0.0000000000000000  0.3557567585387478
  0.5464715255760564  0.5000000000000000  0.6488535019527796
  0.4412237686969484  0.5000000000000000  0.3190959565346858
  0.2255950196414966  0.0000000000000000  0.3198538968267699
  0.2834327793631535  0.5000000000000000  0.6679951946076642
  0.7085330716471812  0.5000000000000000  0.3737993518209146
 
  0.00000000E+00  0.00000000E+00  0.00000000E+00
  0.00000000E+00  0.00000000E+00  0.00000000E+00
  0.00000000E+00  0.00000000E+00  0.00000000E+00
  0.00000000E+00  0.00000000E+00  0.00000000E+00
  0.00000000E+00  0.00000000E+00  0.00000000E+00
  0.00000000E+00  0.00000000E+00  0.00000000E+00
  0.00000000E+00  0.00000000E+00  0.00000000E+00
  0.00000000E+00  0.00000000E+00  0.00000000E+00
  0.00000000E+00  0.00000000E+00  0.00000000E+00
  0.00000000E+00  0.00000000E+00  0.00000000E+00
  0.00000000E+00  0.00000000E+00  0.00000000E+00
  0.00000000E+00  0.00000000E+00  0.00000000E+00
  0.00000000E+00  0.00000000E+00  0.00000000E+00
  0.00000000E+00  0.00000000E+00  0.00000000E+00
  0.00000000E+00  0.00000000E+00  0.00000000E+00
  0.00000000E+00  0.00000000E+00  0.00000000E+00
  0.00000000E+00  0.00000000E+00  0.00000000E+00
  0.00000000E+00  0.00000000E+00  0.00000000E+00
  0.00000000E+00  0.00000000E+00  0.00000000E+00
  0.00000000E+00  0.00000000E+00  0.00000000E+00
  0.00000000E+00  0.00000000E+00  0.00000000E+00
  0.00000000E+00  0.00000000E+00  0.00000000E+00
  0.00000000E+00  0.00000000E+00  0.00000000E+00
  0.00000000E+00  0.00000000E+00  0.00000000E+00
  0.00000000E+00  0.00000000E+00  0.00000000E+00
  0.00000000E+00  0.00000000E+00  0.00000000E+00
  0.00000000E+00  0.00000000E+00  0.00000000E+00
  0.00000000E+00  0.00000000E+00  0.00000000E+00
  0.00000000E+00  0.00000000E+00  0.00000000E+00
  0.00000000E+00  0.00000000E+00  0.00000000E+00
