Na2 C128 S1                             
   1.00000000000000     
     9.9127764890632299    0.0000000000000000    0.0000000000000006
    -4.9563882445316123    8.5847162615658750    0.0000000000000006
     0.0000000000000000    0.0000000000000000   34.1618119065403221
   Na   C    S 
     2   128     1
Selective dynamics
Direct
  0.1403402757695223  0.0546306754928400  0.7822112275898009   T   T   T
  0.8727002637312837  0.2836354765231118  0.7958981952317435   T   T   T
  0.0000000000000000  0.0000000000000000  0.3125000000000000   F   F   F
  0.0000000000000000  0.2500000000000000  0.3125000000000000   F   F   F
  0.0000000000000000  0.5000000000000000  0.3125000000000000   F   F   F
  0.0000000000000000  0.7500000000000000  0.3125000000000000   F   F   F
  0.2500000000000000  0.0000000000000000  0.3125000000000000   F   F   F
  0.2500000000000000  0.2500000000000000  0.3125000000000000   F   F   F
  0.2500000000000000  0.5000000000000000  0.3125000000000000   F   F   F
  0.2500000000000000  0.7500000000000000  0.3125000000000000   F   F   F
  0.5000000000000000  0.0000000000000000  0.3125000000000000   F   F   F
  0.5000000000000000  0.2500000000000000  0.3125000000000000   F   F   F
  0.5000000000000000  0.5000000000000000  0.3125000000000000   F   F   F
  0.5000000000000000  0.7500000000000000  0.3125000000000000   F   F   F
  0.7500000000000000  0.0000000000000000  0.3125000000000000   F   F   F
  0.7500000000000000  0.2500000000000000  0.3125000000000000   F   F   F
  0.7500000000000000  0.5000000000000000  0.3125000000000000   F   F   F
  0.7500000000000000  0.7500000000000000  0.3125000000000000   F   F   F
  0.0000000000000000  0.0000000000000000  0.4375000000000000   F   F   F
  0.0000000000000000  0.2500000000000000  0.4375000000000000   F   F   F
  0.0000000000000000  0.5000000000000000  0.4375000000000000   F   F   F
  0.0000000000000000  0.7500000000000000  0.4375000000000000   F   F   F
  0.2500000000000000  0.0000000000000000  0.4375000000000000   F   F   F
  0.2500000000000000  0.2500000000000000  0.4375000000000000   F   F   F
  0.2500000000000000  0.5000000000000000  0.4375000000000000   F   F   F
  0.2500000000000000  0.7500000000000000  0.4375000000000000   F   F   F
  0.5000000000000000  0.0000000000000000  0.4375000000000000   F   F   F
  0.5000000000000000  0.2500000000000000  0.4375000000000000   F   F   F
  0.5000000000000000  0.5000000000000000  0.4375000000000000   F   F   F
  0.5000000000000000  0.7500000000000000  0.4375000000000000   F   F   F
  0.7500000000000000  0.0000000000000000  0.4375000000000000   F   F   F
  0.7500000000000000  0.2500000000000000  0.4375000000000000   F   F   F
  0.7500000000000000  0.5000000000000000  0.4375000000000000   F   F   F
  0.7500000000000000  0.7500000000000000  0.4375000000000000   F   F   F
  0.1666666666666643  0.0833333333333357  0.3125000000000000   F   F   F
  0.1666666666666643  0.3333333333333357  0.3125000000000000   F   F   F
  0.1666666666666643  0.5833333333333357  0.3125000000000000   F   F   F
  0.1666666666666643  0.8333333333333357  0.3125000000000000   F   F   F
  0.4166666666666643  0.0833333333333357  0.3125000000000000   F   F   F
  0.4166666666666643  0.3333333333333357  0.3125000000000000   F   F   F
  0.4166666666666643  0.5833333333333357  0.3125000000000000   F   F   F
  0.4166666666666643  0.8333333333333357  0.3125000000000000   F   F   F
  0.6666666666666643  0.0833333333333357  0.3125000000000000   F   F   F
  0.6666666666666643  0.3333333333333357  0.3125000000000000   F   F   F
  0.6666666666666643  0.5833333333333357  0.3125000000000000   F   F   F
  0.6666666666666643  0.8333333333333357  0.3125000000000000   F   F   F
  0.9166666666666643  0.0833333333333357  0.3125000000000000   F   F   F
  0.9166666666666643  0.3333333333333357  0.3125000000000000   F   F   F
  0.9166666666666643  0.5833333333333357  0.3125000000000000   F   F   F
  0.9166666666666643  0.8333333333333357  0.3125000000000000   F   F   F
  0.0833333333333357  0.1666666666666643  0.4375000000000000   F   F   F
  0.0833333333333357  0.4166666666666643  0.4375000000000000   F   F   F
  0.0833333333333357  0.6666666666666643  0.4375000000000000   F   F   F
  0.0833333333333357  0.9166666666666643  0.4375000000000000   F   F   F
  0.3333333333333357  0.1666666666666643  0.4375000000000000   F   F   F
  0.3333333333333357  0.4166666666666643  0.4375000000000000   F   F   F
  0.3333333333333357  0.6666666666666643  0.4375000000000000   F   F   F
  0.3333333333333357  0.9166666666666643  0.4375000000000000   F   F   F
  0.5833333333333357  0.1666666666666643  0.4375000000000000   F   F   F
  0.5833333333333357  0.4166666666666643  0.4375000000000000   F   F   F
  0.5833333333333357  0.6666666666666643  0.4375000000000000   F   F   F
  0.5833333333333357  0.9166666666666643  0.4375000000000000   F   F   F
  0.8333333333333357  0.1666666666666643  0.4375000000000000   F   F   F
  0.8333333333333357  0.4166666666666643  0.4375000000000000   F   F   F
  0.8333333333333357  0.6666666666666643  0.4375000000000000   F   F   F
  0.8333333333333357  0.9166666666666643  0.4375000000000000   F   F   F
  0.0000000000000000  0.0000000000000000  0.5625000000000000   F   F   F
  0.0000000000000000  0.2500000000000000  0.5625000000000000   F   F   F
  0.0000000000000000  0.5000000000000000  0.5625000000000000   F   F   F
  0.0000000000000000  0.7500000000000000  0.5625000000000000   F   F   F
  0.2500000000000000  0.0000000000000000  0.5625000000000000   F   F   F
  0.2500000000000000  0.2500000000000000  0.5625000000000000   F   F   F
  0.2500000000000000  0.5000000000000000  0.5625000000000000   F   F   F
  0.2500000000000000  0.7500000000000000  0.5625000000000000   F   F   F
  0.5000000000000000  0.0000000000000000  0.5625000000000000   F   F   F
  0.5000000000000000  0.2500000000000000  0.5625000000000000   F   F   F
  0.5000000000000000  0.5000000000000000  0.5625000000000000   F   F   F
  0.5000000000000000  0.7500000000000000  0.5625000000000000   F   F   F
  0.7500000000000000  0.0000000000000000  0.5625000000000000   F   F   F
  0.7500000000000000  0.2500000000000000  0.5625000000000000   F   F   F
  0.7500000000000000  0.5000000000000000  0.5625000000000000   F   F   F
  0.7500000000000000  0.7500000000000000  0.5625000000000000   F   F   F
 -0.0004372930614942  0.0000829298921102  0.6872596331660142   T   T   T
 -0.0000095110641379  0.2501519959423521  0.6871639040101161   T   T   T
 -0.0000327354835609  0.5001910225429824  0.6876360885633220   T   T   T
 -0.0003830011822930  0.7498971722191559  0.6877578202764272   T   T   T
  0.2499038465491206  0.0001340636916374  0.6877707631686767   T   T   T
  0.2501236293767999  0.2505760718875625  0.6871635296830858   T   T   T
  0.2499284163360011  0.5002465889087900  0.6871094433782589   T   T   T
  0.2498101052610125  0.7501643851397575  0.6876970841671879   T   T   T
  0.4997368600667807  0.0000121858749091  0.6877809171720777   T   T   T
  0.4999637184016698  0.2503000873685183  0.6877339763395428   T   T   T
  0.4999058916806337  0.5002559792688134  0.6873130774826968   T   T   T
  0.4995775182056816  0.7501705954837692  0.6875349456399842   T   T   T
  0.7497333887752327  0.0000189593550249  0.6872363793578028   T   T   T
  0.7497665319539679  0.2500704307499744  0.6877542571145039   T   T   T
  0.7497657801576536  0.5001264051285451  0.6872900744005251   T   T   T
  0.7495234692730780  0.7498934275295288  0.6873366202913047   T   T   T
  0.1666666666666643  0.0833333333333357  0.5625000000000000   F   F   F
  0.1666666666666643  0.3333333333333357  0.5625000000000000   F   F   F
  0.1666666666666643  0.5833333333333357  0.5625000000000000   F   F   F
  0.1666666666666643  0.8333333333333357  0.5625000000000000   F   F   F
  0.4166666666666643  0.0833333333333357  0.5625000000000000   F   F   F
  0.4166666666666643  0.3333333333333357  0.5625000000000000   F   F   F
  0.4166666666666643  0.5833333333333357  0.5625000000000000   F   F   F
  0.4166666666666643  0.8333333333333357  0.5625000000000000   F   F   F
  0.6666666666666643  0.0833333333333357  0.5625000000000000   F   F   F
  0.6666666666666643  0.3333333333333357  0.5625000000000000   F   F   F
  0.6666666666666643  0.5833333333333357  0.5625000000000000   F   F   F
  0.6666666666666643  0.8333333333333357  0.5625000000000000   F   F   F
  0.9166666666666643  0.0833333333333357  0.5625000000000000   F   F   F
  0.9166666666666643  0.3333333333333357  0.5625000000000000   F   F   F
  0.9166666666666643  0.5833333333333357  0.5625000000000000   F   F   F
  0.9166666666666643  0.8333333333333357  0.5625000000000000   F   F   F
  0.0832350366446601  0.1668962532340765  0.6871849685082962   T   T   T
  0.0834732565398598  0.4169200354338585  0.6872401193791929   T   T   T
  0.0831514520164516  0.6666916928289459  0.6877463821503055   T   T   T
  0.0831045793459854  0.9166250567692952  0.6877596122774505   T   T   T
  0.3333809756258292  0.1670481764958399  0.6876697980750736   T   T   T
  0.3333130678379616  0.4169275220945525  0.6870427973178561   T   T   T
  0.3331401771103389  0.6668588707873065  0.6875676500399738   T   T   T
  0.3332440071143399  0.9166737805560844  0.6876794117142926   T   T   T
  0.5832752560500943  0.1667353813814540  0.6878533681586382   T   T   T
  0.5833102045062206  0.4169328390661857  0.6874041330579315   T   T   T
  0.5831491634348485  0.6666652053940878  0.6873473327062573   T   T   T
  0.5829484765276715  0.9166432553719309  0.6875945602414971   T   T   T
  0.8332101274701810  0.1665546886673735  0.6873554666287205   T   T   T
  0.8332624852105553  0.4167790453742828  0.6875999252098647   T   T   T
  0.8329325803898777  0.6666282012902517  0.6874458305263267   T   T   T
  0.8330673192670761  0.9166931517273104  0.6871365306898796   T   T   T
  0.0989340871906284  0.2560505857697353  0.8158732330607983   T   T   T
 
  0.00000000E+00  0.00000000E+00  0.00000000E+00
  0.00000000E+00  0.00000000E+00  0.00000000E+00
  0.00000000E+00  0.00000000E+00  0.00000000E+00
  0.00000000E+00  0.00000000E+00  0.00000000E+00
  0.00000000E+00  0.00000000E+00  0.00000000E+00
  0.00000000E+00  0.00000000E+00  0.00000000E+00
  0.00000000E+00  0.00000000E+00  0.00000000E+00
  0.00000000E+00  0.00000000E+00  0.00000000E+00
  0.00000000E+00  0.00000000E+00  0.00000000E+00
  0.00000000E+00  0.00000000E+00  0.00000000E+00
  0.00000000E+00  0.00000000E+00  0.00000000E+00
  0.00000000E+00  0.00000000E+00  0.00000000E+00
  0.00000000E+00  0.00000000E+00  0.00000000E+00
  0.00000000E+00  0.00000000E+00  0.00000000E+00
  0.00000000E+00  0.00000000E+00  0.00000000E+00
  0.00000000E+00  0.00000000E+00  0.00000000E+00
  0.00000000E+00  0.00000000E+00  0.00000000E+00
  0.00000000E+00  0.00000000E+00  0.00000000E+00
  0.00000000E+00  0.00000000E+00  0.00000000E+00
  0.00000000E+00  0.00000000E+00  0.00000000E+00
  0.00000000E+00  0.00000000E+00  0.00000000E+00
  0.00000000E+00  0.00000000E+00  0.00000000E+00
  0.00000000E+00  0.00000000E+00  0.00000000E+00
  0.00000000E+00  0.00000000E+00  0.00000000E+00
  0.00000000E+00  0.00000000E+00  0.00000000E+00
  0.00000000E+00  0.00000000E+00  0.00000000E+00
  0.00000000E+00  0.00000000E+00  0.00000000E+00
  0.00000000E+00  0.00000000E+00  0.00000000E+00
  0.00000000E+00  0.00000000E+00  0.00000000E+00
  0.00000000E+00  0.00000000E+00  0.00000000E+00
  0.00000000E+00  0.00000000E+00  0.00000000E+00
  0.00000000E+00  0.00000000E+00  0.00000000E+00
  0.00000000E+00  0.00000000E+00  0.00000000E+00
  0.00000000E+00  0.00000000E+00  0.00000000E+00
  0.00000000E+00  0.00000000E+00  0.00000000E+00
  0.00000000E+00  0.00000000E+00  0.00000000E+00
  0.00000000E+00  0.00000000E+00  0.00000000E+00
  0.00000000E+00  0.00000000E+00  0.00000000E+00
  0.00000000E+00  0.00000000E+00  0.00000000E+00
  0.00000000E+00  0.00000000E+00  0.00000000E+00
  0.00000000E+00  0.00000000E+00  0.00000000E+00
  0.00000000E+00  0.00000000E+00  0.00000000E+00
  0.00000000E+00  0.00000000E+00  0.00000000E+00
  0.00000000E+00  0.00000000E+00  0.00000000E+00
  0.00000000E+00  0.00000000E+00  0.00000000E+00
  0.00000000E+00  0.00000000E+00  0.00000000E+00
  0.00000000E+00  0.00000000E+00  0.00000000E+00
  0.00000000E+00  0.00000000E+00  0.00000000E+00
  0.00000000E+00  0.00000000E+00  0.00000000E+00
  0.00000000E+00  0.00000000E+00  0.00000000E+00
  0.00000000E+00  0.00000000E+00  0.00000000E+00
  0.00000000E+00  0.00000000E+00  0.00000000E+00
  0.00000000E+00  0.00000000E+00  0.00000000E+00
  0.00000000E+00  0.00000000E+00  0.00000000E+00
  0.00000000E+00  0.00000000E+00  0.00000000E+00
  0.00000000E+00  0.00000000E+00  0.00000000E+00
  0.00000000E+00  0.00000000E+00  0.00000000E+00
  0.00000000E+00  0.00000000E+00  0.00000000E+00
  0.00000000E+00  0.00000000E+00  0.00000000E+00
  0.00000000E+00  0.00000000E+00  0.00000000E+00
  0.00000000E+00  0.00000000E+00  0.00000000E+00
  0.00000000E+00  0.00000000E+00  0.00000000E+00
  0.00000000E+00  0.00000000E+00  0.00000000E+00
  0.00000000E+00  0.00000000E+00  0.00000000E+00
  0.00000000E+00  0.00000000E+00  0.00000000E+00
  0.00000000E+00  0.00000000E+00  0.00000000E+00
  0.00000000E+00  0.00000000E+00  0.00000000E+00
  0.00000000E+00  0.00000000E+00  0.00000000E+00
  0.00000000E+00  0.00000000E+00  0.00000000E+00
  0.00000000E+00  0.00000000E+00  0.00000000E+00
  0.00000000E+00  0.00000000E+00  0.00000000E+00
  0.00000000E+00  0.00000000E+00  0.00000000E+00
  0.00000000E+00  0.00000000E+00  0.00000000E+00
  0.00000000E+00  0.00000000E+00  0.00000000E+00
  0.00000000E+00  0.00000000E+00  0.00000000E+00
  0.00000000E+00  0.00000000E+00  0.00000000E+00
  0.00000000E+00  0.00000000E+00  0.00000000E+00
  0.00000000E+00  0.00000000E+00  0.00000000E+00
  0.00000000E+00  0.00000000E+00  0.00000000E+00
  0.00000000E+00  0.00000000E+00  0.00000000E+00
  0.00000000E+00  0.00000000E+00  0.00000000E+00
  0.00000000E+00  0.00000000E+00  0.00000000E+00
  0.00000000E+00  0.00000000E+00  0.00000000E+00
  0.00000000E+00  0.00000000E+00  0.00000000E+00
  0.00000000E+00  0.00000000E+00  0.00000000E+00
  0.00000000E+00  0.00000000E+00  0.00000000E+00
  0.00000000E+00  0.00000000E+00  0.00000000E+00
  0.00000000E+00  0.00000000E+00  0.00000000E+00
  0.00000000E+00  0.00000000E+00  0.00000000E+00
  0.00000000E+00  0.00000000E+00  0.00000000E+00
  0.00000000E+00  0.00000000E+00  0.00000000E+00
  0.00000000E+00  0.00000000E+00  0.00000000E+00
  0.00000000E+00  0.00000000E+00  0.00000000E+00
  0.00000000E+00  0.00000000E+00  0.00000000E+00
  0.00000000E+00  0.00000000E+00  0.00000000E+00
  0.00000000E+00  0.00000000E+00  0.00000000E+00
  0.00000000E+00  0.00000000E+00  0.00000000E+00
  0.00000000E+00  0.00000000E+00  0.00000000E+00
  0.00000000E+00  0.00000000E+00  0.00000000E+00
  0.00000000E+00  0.00000000E+00  0.00000000E+00
  0.00000000E+00  0.00000000E+00  0.00000000E+00
  0.00000000E+00  0.00000000E+00  0.00000000E+00
  0.00000000E+00  0.00000000E+00  0.00000000E+00
  0.00000000E+00  0.00000000E+00  0.00000000E+00
  0.00000000E+00  0.00000000E+00  0.00000000E+00
  0.00000000E+00  0.00000000E+00  0.00000000E+00
  0.00000000E+00  0.00000000E+00  0.00000000E+00
  0.00000000E+00  0.00000000E+00  0.00000000E+00
  0.00000000E+00  0.00000000E+00  0.00000000E+00
  0.00000000E+00  0.00000000E+00  0.00000000E+00
  0.00000000E+00  0.00000000E+00  0.00000000E+00
  0.00000000E+00  0.00000000E+00  0.00000000E+00
  0.00000000E+00  0.00000000E+00  0.00000000E+00
  0.00000000E+00  0.00000000E+00  0.00000000E+00
  0.00000000E+00  0.00000000E+00  0.00000000E+00
  0.00000000E+00  0.00000000E+00  0.00000000E+00
  0.00000000E+00  0.00000000E+00  0.00000000E+00
  0.00000000E+00  0.00000000E+00  0.00000000E+00
  0.00000000E+00  0.00000000E+00  0.00000000E+00
  0.00000000E+00  0.00000000E+00  0.00000000E+00
  0.00000000E+00  0.00000000E+00  0.00000000E+00
  0.00000000E+00  0.00000000E+00  0.00000000E+00
  0.00000000E+00  0.00000000E+00  0.00000000E+00
  0.00000000E+00  0.00000000E+00  0.00000000E+00
  0.00000000E+00  0.00000000E+00  0.00000000E+00
  0.00000000E+00  0.00000000E+00  0.00000000E+00
  0.00000000E+00  0.00000000E+00  0.00000000E+00
  0.00000000E+00  0.00000000E+00  0.00000000E+00
  0.00000000E+00  0.00000000E+00  0.00000000E+00
  0.00000000E+00  0.00000000E+00  0.00000000E+00
  0.00000000E+00  0.00000000E+00  0.00000000E+00
