K2 V8 Zn1 O19                           
    1.000000000000000     
    11.9484682790395862    0.0000000000000000   -0.1084127687401321
     0.0000000000000000    3.7999050296611885    0.0000000000000000
    -0.0670048017994210    0.0000000000000000    9.2192550829578419
   Zn   K    V    O 
     1     2     8    19
Direct
  0.7735761021756657  0.0000000000000000  0.4044133794051055
  0.3998284932372635  0.0000000000000000  0.5341495149390745
  0.0980745088091851  0.5000000000000000  0.4650960439290674
  0.0611861159484423  0.0000000000000000  0.8305937118560099
  0.9326172821192277  0.0000000000000000  0.1504513496792804
  0.5596729595867713  0.5000000000000000  0.8340016119246406
  0.4274901433037085  0.5000000000000000  0.1568489619086429
  0.7567060123913105  0.0000000000000000  0.9134342121791390
  0.2341651110127083  0.0000000000000000  0.1383852173157701
  0.2557149974952501  0.5000000000000000  0.8447225319848379
  0.7249753788064845  0.5000000000000000  0.1606700076927924
  0.6016022520494113  0.0000000000000000  0.8511805814614452
  0.3980433078772121  0.0000000000000000  0.1260370800190414
  0.0921301352612106  0.5000000000000000  0.8652204584179318
  0.8937541037146168  0.5000000000000000  0.1306321317399271
  0.9007288119819150  0.0000000000000000  0.8927551845334150
  0.0674974252771336  0.0000000000000000  0.0982395406631809
  0.4239585161826986  0.5000000000000000  0.8927976969698187
  0.5704923602631605  0.5000000000000000  0.1154578851278555
  0.2260325319191334  0.0000000000000000  0.8913946192553389
  0.7539514647209947  0.0000000000000000  0.1233445148395561
  0.7228543928822547  0.5000000000000000  0.9164674794653440
  0.2645060756741448  0.5000000000000000  0.0936553533026061
  0.0419795342963484  0.0000000000000000  0.6529216742230408
  0.9339064757868718  0.0000000000000000  0.3353281789380537
  0.5516538188753035  0.5000000000000000  0.6570493021852950
  0.4287019650684189  0.5000000000000000  0.3338174766860052
  0.2140583546699659  0.0000000000000000  0.3159652649014123
  0.2764061240705813  0.5000000000000000  0.6664890329830510
  0.7347612445425964  0.5000000000000000  0.3743151866585228
 
  0.00000000E+00  0.00000000E+00  0.00000000E+00
  0.00000000E+00  0.00000000E+00  0.00000000E+00
  0.00000000E+00  0.00000000E+00  0.00000000E+00
  0.00000000E+00  0.00000000E+00  0.00000000E+00
  0.00000000E+00  0.00000000E+00  0.00000000E+00
  0.00000000E+00  0.00000000E+00  0.00000000E+00
  0.00000000E+00  0.00000000E+00  0.00000000E+00
  0.00000000E+00  0.00000000E+00  0.00000000E+00
  0.00000000E+00  0.00000000E+00  0.00000000E+00
  0.00000000E+00  0.00000000E+00  0.00000000E+00
  0.00000000E+00  0.00000000E+00  0.00000000E+00
  0.00000000E+00  0.00000000E+00  0.00000000E+00
  0.00000000E+00  0.00000000E+00  0.00000000E+00
  0.00000000E+00  0.00000000E+00  0.00000000E+00
  0.00000000E+00  0.00000000E+00  0.00000000E+00
  0.00000000E+00  0.00000000E+00  0.00000000E+00
  0.00000000E+00  0.00000000E+00  0.00000000E+00
  0.00000000E+00  0.00000000E+00  0.00000000E+00
  0.00000000E+00  0.00000000E+00  0.00000000E+00
  0.00000000E+00  0.00000000E+00  0.00000000E+00
  0.00000000E+00  0.00000000E+00  0.00000000E+00
  0.00000000E+00  0.00000000E+00  0.00000000E+00
  0.00000000E+00  0.00000000E+00  0.00000000E+00
  0.00000000E+00  0.00000000E+00  0.00000000E+00
  0.00000000E+00  0.00000000E+00  0.00000000E+00
  0.00000000E+00  0.00000000E+00  0.00000000E+00
  0.00000000E+00  0.00000000E+00  0.00000000E+00
  0.00000000E+00  0.00000000E+00  0.00000000E+00
  0.00000000E+00  0.00000000E+00  0.00000000E+00
  0.00000000E+00  0.00000000E+00  0.00000000E+00
