Na2 Mn32 S8 O32                         
   1.00000000000000     
     9.0703517222506171    0.0000000000000000    0.0000000000000006
    -0.0000000000000006    9.0703517222506171    0.0000000000000006
     0.0000000000000000    0.0000000000000000   22.6758793056265446
   Na   Mn   S    O 
     2    32     8    32
Selective dynamics
Direct
  0.7545201300543622  0.0631569035829263  0.8469235707449781   T   T   T
  0.1250805506962779  0.0765948836230971  0.8690765361762867   T   T   T
  0.0000000000000000  0.0000000000000000  0.4500000000000028   F   F   F
  0.0000000000000000  0.5000000000000000  0.4500000000000028   F   F   F
  0.5000000000000000  0.0000000000000000  0.4500000000000028   F   F   F
  0.5000000000000000  0.5000000000000000  0.4500000000000028   F   F   F
  0.2500000000000000  0.0000000000000000  0.3500000000000014   F   F   F
  0.2500000000000000  0.5000000000000000  0.3500000000000014   F   F   F
  0.7500000000000000  0.0000000000000000  0.3500000000000014   F   F   F
  0.7500000000000000  0.5000000000000000  0.3500000000000014   F   F   F
  0.0000000000000000  0.2500000000000000  0.3500000000000014   F   F   F
  0.0000000000000000  0.7500000000000000  0.3500000000000014   F   F   F
  0.5000000000000000  0.2500000000000000  0.3500000000000014   F   F   F
  0.5000000000000000  0.7500000000000000  0.3500000000000014   F   F   F
  0.2500000000000000  0.2500000000000000  0.4500000000000028   F   F   F
  0.2500000000000000  0.7500000000000000  0.4500000000000028   F   F   F
  0.7500000000000000  0.2500000000000000  0.4500000000000028   F   F   F
  0.7500000000000000  0.7500000000000000  0.4500000000000028   F   F   F
  0.0448196831454455 -0.0393722461870926  0.6595199379733084   T   T   T
 -0.0145763198618861  0.5136777979201187  0.6493353698924331   T   T   T
  0.4949279606836813  0.0173108157900660  0.6485005647306401   T   T   T
  0.5084356972758280  0.4911599183981743  0.6494401522357079   T   T   T
  0.2500000000000000  0.0000000000000000  0.5499999999999972   F   F   F
  0.2500000000000000  0.5000000000000000  0.5499999999999972   F   F   F
  0.7500000000000000  0.0000000000000000  0.5499999999999972   F   F   F
  0.7500000000000000  0.5000000000000000  0.5499999999999972   F   F   F
  0.0000000000000000  0.2500000000000000  0.5499999999999972   F   F   F
  0.0000000000000000  0.7500000000000000  0.5499999999999972   F   F   F
  0.5000000000000000  0.2500000000000000  0.5499999999999972   F   F   F
  0.5000000000000000  0.7500000000000000  0.5499999999999972   F   F   F
  0.2345166513463891  0.2696842967142086  0.6581267736206633   T   T   T
  0.2688934356266514  0.7355015216722632  0.6490691703125397   T   T   T
  0.7844972040354288  0.2298429639135094  0.6600761891174146   T   T   T
  0.7369870334521008  0.7593557646354840  0.6607160823730684   T   T   T
  0.8692378743032023  0.6879831118727048  0.8152732584741631   T   T   T
  0.0774392046713484  0.1203450245772809  0.7436909099868260   T   T   T
  0.9361980590963244  0.2120661080922996  0.9519806748460805   T   T   T
  0.2638465861394237  0.3412670792847473  0.9012325801889807   T   T   T
  0.6916817598732793  0.7658883205932290  0.7689294680650406   T   T   T
  0.9250528470200230  0.8224355882869183  0.8821261290589077   T   T   T
  0.0754463224111463  0.3853295122700908  0.9441699074041005   T   T   T
  0.8813810312115881  0.2409395720947331  0.7608609037196380   T   T   T
  0.0000000000000000  0.0000000000000000  0.3500000000000014   F   F   F
  0.0000000000000000  0.5000000000000000  0.3500000000000014   F   F   F
  0.5000000000000000  0.0000000000000000  0.3500000000000014   F   F   F
  0.5000000000000000  0.5000000000000000  0.3500000000000014   F   F   F
  0.2500000000000000  0.0000000000000000  0.4500000000000028   F   F   F
  0.2500000000000000  0.5000000000000000  0.4500000000000028   F   F   F
  0.7500000000000000  0.0000000000000000  0.4500000000000028   F   F   F
  0.7500000000000000  0.5000000000000000  0.4500000000000028   F   F   F
  0.0000000000000000  0.2500000000000000  0.4500000000000028   F   F   F
  0.0000000000000000  0.7500000000000000  0.4500000000000028   F   F   F
  0.5000000000000000  0.2500000000000000  0.4500000000000028   F   F   F
  0.5000000000000000  0.7500000000000000  0.4500000000000028   F   F   F
  0.2500000000000000  0.2500000000000000  0.3500000000000014   F   F   F
  0.2500000000000000  0.7500000000000000  0.3500000000000014   F   F   F
  0.7500000000000000  0.2500000000000000  0.3500000000000014   F   F   F
  0.7500000000000000  0.7500000000000000  0.3500000000000014   F   F   F
  0.0000000000000000  0.0000000000000000  0.5499999999999972   F   F   F
  0.0000000000000000  0.5000000000000000  0.5499999999999972   F   F   F
  0.5000000000000000  0.0000000000000000  0.5499999999999972   F   F   F
  0.5000000000000000  0.5000000000000000  0.5499999999999972   F   F   F
  0.2722268306539877 -0.0358840897946020  0.6461409790743071   T   T   T
  0.2582409652029696  0.5083970315090075  0.6485871692015621   T   T   T
  0.7210079006379928 -0.0004563202096107  0.6446331240249434   T   T   T
  0.7457644428061716  0.5032065759537978  0.6449347471832400   T   T   T
  0.0080900578567505  0.2902374022177199  0.6363734815875193   T   T   T
  0.0016713229707692  0.7410863425680911  0.6474566109628980   T   T   T
  0.4715083199330569  0.2584269568514210  0.6480063423271810   T   T   T
  0.5003920277297214  0.7260909375797057  0.6463633276978041   T   T   T
  0.2500000000000000  0.2500000000000000  0.5499999999999972   F   F   F
  0.2500000000000000  0.7500000000000000  0.5499999999999972   F   F   F
  0.7500000000000000  0.2500000000000000  0.5499999999999972   F   F   F
  0.7500000000000000  0.7500000000000000  0.5499999999999972   F   F   F
 
  0.00000000E+00  0.00000000E+00  0.00000000E+00
  0.00000000E+00  0.00000000E+00  0.00000000E+00
  0.00000000E+00  0.00000000E+00  0.00000000E+00
  0.00000000E+00  0.00000000E+00  0.00000000E+00
  0.00000000E+00  0.00000000E+00  0.00000000E+00
  0.00000000E+00  0.00000000E+00  0.00000000E+00
  0.00000000E+00  0.00000000E+00  0.00000000E+00
  0.00000000E+00  0.00000000E+00  0.00000000E+00
  0.00000000E+00  0.00000000E+00  0.00000000E+00
  0.00000000E+00  0.00000000E+00  0.00000000E+00
  0.00000000E+00  0.00000000E+00  0.00000000E+00
  0.00000000E+00  0.00000000E+00  0.00000000E+00
  0.00000000E+00  0.00000000E+00  0.00000000E+00
  0.00000000E+00  0.00000000E+00  0.00000000E+00
  0.00000000E+00  0.00000000E+00  0.00000000E+00
  0.00000000E+00  0.00000000E+00  0.00000000E+00
  0.00000000E+00  0.00000000E+00  0.00000000E+00
  0.00000000E+00  0.00000000E+00  0.00000000E+00
  0.00000000E+00  0.00000000E+00  0.00000000E+00
  0.00000000E+00  0.00000000E+00  0.00000000E+00
  0.00000000E+00  0.00000000E+00  0.00000000E+00
  0.00000000E+00  0.00000000E+00  0.00000000E+00
  0.00000000E+00  0.00000000E+00  0.00000000E+00
  0.00000000E+00  0.00000000E+00  0.00000000E+00
  0.00000000E+00  0.00000000E+00  0.00000000E+00
  0.00000000E+00  0.00000000E+00  0.00000000E+00
  0.00000000E+00  0.00000000E+00  0.00000000E+00
  0.00000000E+00  0.00000000E+00  0.00000000E+00
  0.00000000E+00  0.00000000E+00  0.00000000E+00
  0.00000000E+00  0.00000000E+00  0.00000000E+00
  0.00000000E+00  0.00000000E+00  0.00000000E+00
  0.00000000E+00  0.00000000E+00  0.00000000E+00
  0.00000000E+00  0.00000000E+00  0.00000000E+00
  0.00000000E+00  0.00000000E+00  0.00000000E+00
  0.00000000E+00  0.00000000E+00  0.00000000E+00
  0.00000000E+00  0.00000000E+00  0.00000000E+00
  0.00000000E+00  0.00000000E+00  0.00000000E+00
  0.00000000E+00  0.00000000E+00  0.00000000E+00
  0.00000000E+00  0.00000000E+00  0.00000000E+00
  0.00000000E+00  0.00000000E+00  0.00000000E+00
  0.00000000E+00  0.00000000E+00  0.00000000E+00
  0.00000000E+00  0.00000000E+00  0.00000000E+00
  0.00000000E+00  0.00000000E+00  0.00000000E+00
  0.00000000E+00  0.00000000E+00  0.00000000E+00
  0.00000000E+00  0.00000000E+00  0.00000000E+00
  0.00000000E+00  0.00000000E+00  0.00000000E+00
  0.00000000E+00  0.00000000E+00  0.00000000E+00
  0.00000000E+00  0.00000000E+00  0.00000000E+00
  0.00000000E+00  0.00000000E+00  0.00000000E+00
  0.00000000E+00  0.00000000E+00  0.00000000E+00
  0.00000000E+00  0.00000000E+00  0.00000000E+00
  0.00000000E+00  0.00000000E+00  0.00000000E+00
  0.00000000E+00  0.00000000E+00  0.00000000E+00
  0.00000000E+00  0.00000000E+00  0.00000000E+00
  0.00000000E+00  0.00000000E+00  0.00000000E+00
  0.00000000E+00  0.00000000E+00  0.00000000E+00
  0.00000000E+00  0.00000000E+00  0.00000000E+00
  0.00000000E+00  0.00000000E+00  0.00000000E+00
  0.00000000E+00  0.00000000E+00  0.00000000E+00
  0.00000000E+00  0.00000000E+00  0.00000000E+00
  0.00000000E+00  0.00000000E+00  0.00000000E+00
  0.00000000E+00  0.00000000E+00  0.00000000E+00
  0.00000000E+00  0.00000000E+00  0.00000000E+00
  0.00000000E+00  0.00000000E+00  0.00000000E+00
  0.00000000E+00  0.00000000E+00  0.00000000E+00
  0.00000000E+00  0.00000000E+00  0.00000000E+00
  0.00000000E+00  0.00000000E+00  0.00000000E+00
  0.00000000E+00  0.00000000E+00  0.00000000E+00
  0.00000000E+00  0.00000000E+00  0.00000000E+00
  0.00000000E+00  0.00000000E+00  0.00000000E+00
  0.00000000E+00  0.00000000E+00  0.00000000E+00
  0.00000000E+00  0.00000000E+00  0.00000000E+00
  0.00000000E+00  0.00000000E+00  0.00000000E+00
  0.00000000E+00  0.00000000E+00  0.00000000E+00
