Na2 Mn72 Ni24 S2                        
   1.00000000000000     
    10.0435731758686053    0.0000000000000000    0.0000000000000006
     5.0217865879343071    8.6979895150701676    0.0000000000000006
     0.0000000000000000    0.0000000000000000   24.6016294751824205
   Na   Mn   Ni   S 
     2    72    24     2
Selective dynamics
Direct
  0.0427876855819784  0.5877883352558489  0.8150898503160428   T   T   T
  0.0749686883763947  0.0969192106138185  0.8127086827787088   T   T   T
  0.3333333333333357  0.0833333333333357  0.2916666666666643   F   F   F
  0.3333333333333357  0.5833333333333357  0.2916666666666643   F   F   F
  0.8333333333333357  0.0833333333333357  0.2916666666666643   F   F   F
  0.8333333333333357  0.5833333333333357  0.2916666666666643   F   F   F
  0.0000000000000000  0.2500000000000000  0.3750000000000000   F   F   F
  0.0000000000000000  0.7500000000000000  0.3750000000000000   F   F   F
  0.5000000000000000  0.2500000000000000  0.3750000000000000   F   F   F
  0.5000000000000000  0.7500000000000000  0.3750000000000000   F   F   F
  0.1666666666666643  0.4166666666666643  0.4583333333333357   F   F   F
  0.1666666666666643  0.9166666666666643  0.4583333333333357   F   F   F
  0.6666666666666643  0.4166666666666643  0.4583333333333357   F   F   F
  0.6666666666666643  0.9166666666666643  0.4583333333333357   F   F   F
  0.0833333333333357  0.0833333333333357  0.2916666666666643   F   F   F
  0.0833333333333357  0.5833333333333357  0.2916666666666643   F   F   F
  0.5833333333333357  0.0833333333333357  0.2916666666666643   F   F   F
  0.5833333333333357  0.5833333333333357  0.2916666666666643   F   F   F
  0.2500000000000000  0.2500000000000000  0.3750000000000000   F   F   F
  0.2500000000000000  0.7500000000000000  0.3750000000000000   F   F   F
  0.7500000000000000  0.2500000000000000  0.3750000000000000   F   F   F
  0.7500000000000000  0.7500000000000000  0.3750000000000000   F   F   F
  0.4166666666666643  0.4166666666666643  0.4583333333333357   F   F   F
  0.4166666666666643  0.9166666666666643  0.4583333333333357   F   F   F
  0.9166666666666643  0.4166666666666643  0.4583333333333357   F   F   F
  0.9166666666666643  0.9166666666666643  0.4583333333333357   F   F   F
  0.0833333333333357  0.3333333333333357  0.2916666666666643   F   F   F
  0.0833333333333357  0.8333333333333357  0.2916666666666643   F   F   F
  0.5833333333333357  0.3333333333333357  0.2916666666666643   F   F   F
  0.5833333333333357  0.8333333333333357  0.2916666666666643   F   F   F
  0.2500000000000000  0.5000000000000000  0.3750000000000000   F   F   F
  0.2500000000000000  0.0000000000000000  0.3750000000000000   F   F   F
  0.7500000000000000  0.5000000000000000  0.3750000000000000   F   F   F
  0.7500000000000000  0.0000000000000000  0.3750000000000000   F   F   F
  0.4166666666666643  0.1666666666666643  0.4583333333333357   F   F   F
  0.4166666666666643  0.6666666666666643  0.4583333333333357   F   F   F
  0.9166666666666643  0.1666666666666643  0.4583333333333357   F   F   F
  0.9166666666666643  0.6666666666666643  0.4583333333333357   F   F   F
  0.3333333333333357  0.0833333333333357  0.5416666666666643   F   F   F
  0.3333333333333357  0.5833333333333357  0.5416666666666643   F   F   F
  0.8333333333333357  0.0833333333333357  0.5416666666666643   F   F   F
  0.8333333333333357  0.5833333333333357  0.5416666666666643   F   F   F
  0.0009046898392488  0.2527244568737490  0.6287985206093172   T   T   T
 -0.0031072316378987  0.7559732239206390  0.6275717291666634   T   T   T
  0.4999801444961943  0.2542390303001826  0.6273411448787356   T   T   T
  0.4940052178246608  0.7531718351650075  0.6287345985742147   T   T   T
  0.1610176032506571  0.4187398564663830  0.7094405582377029   T   T   T
  0.1755802070628075  0.9109476420603332  0.7052469038827159   T   T   T
  0.6572778521442975  0.4137032115536184  0.7085141066982341   T   T   T
  0.6702096931826961  0.9209584431245313  0.7069300417647182   T   T   T
  0.0833333333333357  0.0833333333333357  0.5416666666666643   F   F   F
  0.0833333333333357  0.5833333333333357  0.5416666666666643   F   F   F
  0.5833333333333357  0.0833333333333357  0.5416666666666643   F   F   F
  0.5833333333333357  0.5833333333333357  0.5416666666666643   F   F   F
  0.2458087845755776  0.2457003153191670  0.6261119993484694   T   T   T
  0.2495504056332728  0.7489974548930456  0.6276871115174522   T   T   T
  0.7470956356264047  0.2479331926781887  0.6268773773971936   T   T   T
  0.7440491925257597  0.7495707732927455  0.6269080132299442   T   T   T
  0.4222287332657097  0.4130373336472007  0.7073131442698901   T   T   T
  0.4112728092699449  0.9082620391523426  0.7052444108487825   T   T   T
  0.9233450157600984  0.4154153399287674  0.7091587264837562   T   T   T
  0.9127105545315672  0.9208857740377642  0.7069628735191847   T   T   T
  0.0833333333333357  0.3333333333333357  0.5416666666666643   F   F   F
  0.0833333333333357  0.8333333333333357  0.5416666666666643   F   F   F
  0.5833333333333357  0.3333333333333357  0.5416666666666643   F   F   F
  0.5833333333333357  0.8333333333333357  0.5416666666666643   F   F   F
  0.2557476012025030  0.4885969785675157  0.6307982847631762   T   T   T
  0.2540009952561605 -0.0060736588450163  0.6274373286101376   T   T   T
  0.7509574727113760  0.4973661216683802  0.6280834416119533   T   T   T
  0.7548119292745792 -0.0076459598476729  0.6282702565217344   T   T   T
  0.4274718166462460  0.1589579975864752  0.7075915303633313   T   T   T
  0.4069309823385198  0.6791775412973882  0.7051562243083342   T   T   T
  0.9135127391576956  0.1688001628903580  0.7036072738515047   T   T   T
  0.9128453722699468  0.6752512328991653  0.7061201254504127   T   T   T
  0.0000000000000000  0.5000000000000000  0.3750000000000000   F   F   F
  0.0000000000000000  0.0000000000000000  0.3750000000000000   F   F   F
  0.5000000000000000  0.5000000000000000  0.3750000000000000   F   F   F
  0.5000000000000000  0.0000000000000000  0.3750000000000000   F   F   F
  0.1666666666666643  0.1666666666666643  0.4583333333333357   F   F   F
  0.1666666666666643  0.6666666666666643  0.4583333333333357   F   F   F
  0.6666666666666643  0.1666666666666643  0.4583333333333357   F   F   F
  0.6666666666666643  0.6666666666666643  0.4583333333333357   F   F   F
  0.3333333333333357  0.3333333333333357  0.2916666666666643   F   F   F
  0.3333333333333357  0.8333333333333357  0.2916666666666643   F   F   F
  0.8333333333333357  0.3333333333333357  0.2916666666666643   F   F   F
  0.8333333333333357  0.8333333333333357  0.2916666666666643   F   F   F
 -0.0003855022634405  0.5019877924481322  0.6243383782113696   T   T   T
  0.0009764797813935  0.0014723176953907  0.6239714040580336   T   T   T
  0.5001216476267584  0.5018433468347666  0.6246942690221655   T   T   T
  0.5001693767308411  0.0017929200315736  0.6241663706288947   T   T   T
  0.1689748453685010  0.1630655659718312  0.7122009969335263   T   T   T
  0.1654574093353281  0.6662997604531781  0.7088487223511236   T   T   T
  0.6684840884467810  0.1657691456637613  0.7081731139228707   T   T   T
  0.6650856827782121  0.6689435770779210  0.7129432791896243   T   T   T
  0.3333333333333357  0.3333333333333357  0.5416666666666643   F   F   F
  0.3333333333333357  0.8333333333333357  0.5416666666666643   F   F   F
  0.8333333333333357  0.3333333333333357  0.5416666666666643   F   F   F
  0.8333333333333357  0.8333333333333357  0.5416666666666643   F   F   F
  0.2661450146113184  0.2495376329642447  0.7774292868345365   T   T   T
  0.7537180322088304  0.4836902734438200  0.7763636262416954   T   T   T
 
  0.00000000E+00  0.00000000E+00  0.00000000E+00
  0.00000000E+00  0.00000000E+00  0.00000000E+00
  0.00000000E+00  0.00000000E+00  0.00000000E+00
  0.00000000E+00  0.00000000E+00  0.00000000E+00
  0.00000000E+00  0.00000000E+00  0.00000000E+00
  0.00000000E+00  0.00000000E+00  0.00000000E+00
  0.00000000E+00  0.00000000E+00  0.00000000E+00
  0.00000000E+00  0.00000000E+00  0.00000000E+00
  0.00000000E+00  0.00000000E+00  0.00000000E+00
  0.00000000E+00  0.00000000E+00  0.00000000E+00
  0.00000000E+00  0.00000000E+00  0.00000000E+00
  0.00000000E+00  0.00000000E+00  0.00000000E+00
  0.00000000E+00  0.00000000E+00  0.00000000E+00
  0.00000000E+00  0.00000000E+00  0.00000000E+00
  0.00000000E+00  0.00000000E+00  0.00000000E+00
  0.00000000E+00  0.00000000E+00  0.00000000E+00
  0.00000000E+00  0.00000000E+00  0.00000000E+00
  0.00000000E+00  0.00000000E+00  0.00000000E+00
  0.00000000E+00  0.00000000E+00  0.00000000E+00
  0.00000000E+00  0.00000000E+00  0.00000000E+00
  0.00000000E+00  0.00000000E+00  0.00000000E+00
  0.00000000E+00  0.00000000E+00  0.00000000E+00
  0.00000000E+00  0.00000000E+00  0.00000000E+00
  0.00000000E+00  0.00000000E+00  0.00000000E+00
  0.00000000E+00  0.00000000E+00  0.00000000E+00
  0.00000000E+00  0.00000000E+00  0.00000000E+00
  0.00000000E+00  0.00000000E+00  0.00000000E+00
  0.00000000E+00  0.00000000E+00  0.00000000E+00
  0.00000000E+00  0.00000000E+00  0.00000000E+00
  0.00000000E+00  0.00000000E+00  0.00000000E+00
  0.00000000E+00  0.00000000E+00  0.00000000E+00
  0.00000000E+00  0.00000000E+00  0.00000000E+00
  0.00000000E+00  0.00000000E+00  0.00000000E+00
  0.00000000E+00  0.00000000E+00  0.00000000E+00
  0.00000000E+00  0.00000000E+00  0.00000000E+00
  0.00000000E+00  0.00000000E+00  0.00000000E+00
  0.00000000E+00  0.00000000E+00  0.00000000E+00
  0.00000000E+00  0.00000000E+00  0.00000000E+00
  0.00000000E+00  0.00000000E+00  0.00000000E+00
  0.00000000E+00  0.00000000E+00  0.00000000E+00
  0.00000000E+00  0.00000000E+00  0.00000000E+00
  0.00000000E+00  0.00000000E+00  0.00000000E+00
  0.00000000E+00  0.00000000E+00  0.00000000E+00
  0.00000000E+00  0.00000000E+00  0.00000000E+00
  0.00000000E+00  0.00000000E+00  0.00000000E+00
  0.00000000E+00  0.00000000E+00  0.00000000E+00
  0.00000000E+00  0.00000000E+00  0.00000000E+00
  0.00000000E+00  0.00000000E+00  0.00000000E+00
  0.00000000E+00  0.00000000E+00  0.00000000E+00
  0.00000000E+00  0.00000000E+00  0.00000000E+00
  0.00000000E+00  0.00000000E+00  0.00000000E+00
  0.00000000E+00  0.00000000E+00  0.00000000E+00
  0.00000000E+00  0.00000000E+00  0.00000000E+00
  0.00000000E+00  0.00000000E+00  0.00000000E+00
  0.00000000E+00  0.00000000E+00  0.00000000E+00
  0.00000000E+00  0.00000000E+00  0.00000000E+00
  0.00000000E+00  0.00000000E+00  0.00000000E+00
  0.00000000E+00  0.00000000E+00  0.00000000E+00
  0.00000000E+00  0.00000000E+00  0.00000000E+00
  0.00000000E+00  0.00000000E+00  0.00000000E+00
  0.00000000E+00  0.00000000E+00  0.00000000E+00
  0.00000000E+00  0.00000000E+00  0.00000000E+00
  0.00000000E+00  0.00000000E+00  0.00000000E+00
  0.00000000E+00  0.00000000E+00  0.00000000E+00
  0.00000000E+00  0.00000000E+00  0.00000000E+00
  0.00000000E+00  0.00000000E+00  0.00000000E+00
  0.00000000E+00  0.00000000E+00  0.00000000E+00
  0.00000000E+00  0.00000000E+00  0.00000000E+00
  0.00000000E+00  0.00000000E+00  0.00000000E+00
  0.00000000E+00  0.00000000E+00  0.00000000E+00
  0.00000000E+00  0.00000000E+00  0.00000000E+00
  0.00000000E+00  0.00000000E+00  0.00000000E+00
  0.00000000E+00  0.00000000E+00  0.00000000E+00
  0.00000000E+00  0.00000000E+00  0.00000000E+00
  0.00000000E+00  0.00000000E+00  0.00000000E+00
  0.00000000E+00  0.00000000E+00  0.00000000E+00
  0.00000000E+00  0.00000000E+00  0.00000000E+00
  0.00000000E+00  0.00000000E+00  0.00000000E+00
  0.00000000E+00  0.00000000E+00  0.00000000E+00
  0.00000000E+00  0.00000000E+00  0.00000000E+00
  0.00000000E+00  0.00000000E+00  0.00000000E+00
  0.00000000E+00  0.00000000E+00  0.00000000E+00
  0.00000000E+00  0.00000000E+00  0.00000000E+00
  0.00000000E+00  0.00000000E+00  0.00000000E+00
  0.00000000E+00  0.00000000E+00  0.00000000E+00
  0.00000000E+00  0.00000000E+00  0.00000000E+00
  0.00000000E+00  0.00000000E+00  0.00000000E+00
  0.00000000E+00  0.00000000E+00  0.00000000E+00
  0.00000000E+00  0.00000000E+00  0.00000000E+00
  0.00000000E+00  0.00000000E+00  0.00000000E+00
  0.00000000E+00  0.00000000E+00  0.00000000E+00
  0.00000000E+00  0.00000000E+00  0.00000000E+00
  0.00000000E+00  0.00000000E+00  0.00000000E+00
  0.00000000E+00  0.00000000E+00  0.00000000E+00
  0.00000000E+00  0.00000000E+00  0.00000000E+00
  0.00000000E+00  0.00000000E+00  0.00000000E+00
  0.00000000E+00  0.00000000E+00  0.00000000E+00
  0.00000000E+00  0.00000000E+00  0.00000000E+00
  0.00000000E+00  0.00000000E+00  0.00000000E+00
  0.00000000E+00  0.00000000E+00  0.00000000E+00
