Na2 Fe80 Co48 S2                        
   1.00000000000000     
     9.9634609566234982    0.0000000000000000    0.0151289702272597
     3.3293508209599403    9.3783526594987556    0.0293803577450063
     0.0000000000000000    0.0000000000000000   32.5363995943291116
   Na   Fe   Co   S 
     2    80    48     2
Selective dynamics
Direct
  0.5852928557147982  0.7230085497376648  0.7984059746047804   T   T   T
  0.4436747691864155  0.3393990861066001  0.8015623695657690   T   T   T
 -0.0010706460973273  0.0017595006924552  0.7169052240449920   T   T   T
  0.1250000000000000  0.6250000000000000  0.2812500000000000   F   F   F
  0.2500000000000000  0.2500000000000000  0.3437500000000000   F   F   F
  0.3750000000000000  0.8750000000000000  0.4062500000000000   F   F   F
  0.5000000000000000  0.5000000000000000  0.4687500000000000   F   F   F
  0.6250000000000000  0.1250000000000000  0.5312500000000000   F   F   F
  0.7500000000000000  0.7500000000000000  0.5937500000000000   F   F   F
  0.8757405106872228  0.3752078268392626  0.6562644003680405   T   T   T
  0.8750000000000000  0.1250000000000000  0.2812500000000000   F   F   F
  0.0000000000000000  0.7500000000000000  0.3437500000000000   F   F   F
  0.1250000000000000  0.3750000000000000  0.4062500000000000   F   F   F
  0.2500000000000000  0.0000000000000000  0.4687500000000000   F   F   F
  0.3750000000000000  0.6250000000000000  0.5312500000000000   F   F   F
  0.5000000000000000  0.2500000000000000  0.5937500000000000   F   F   F
  0.6241342782203495  0.8757059786972224  0.6561638794484806   T   T   T
  0.7563221213348515  0.5068347379208086  0.7203743938166256   T   T   T
  0.5000000000000000  0.2500000000000000  0.3437500000000000   F   F   F
  0.6250000000000000  0.8750000000000000  0.4062500000000000   F   F   F
  0.7500000000000000  0.5000000000000000  0.4687500000000000   F   F   F
  0.8750000000000000  0.1250000000000000  0.5312500000000000   F   F   F
  0.0000000000000000  0.7500000000000000  0.5937500000000000   F   F   F
  0.1254225492915997  0.3770410797342770  0.6564413481153455   T   T   T
  0.2482658087990600  0.0038711636072551  0.7183030020739085   T   T   T
  0.3750000000000000  0.6250000000000000  0.2812500000000000   F   F   F
  0.1249059120620544  0.8749059120620544  0.2812029560310236   F   F   F
  0.2499059120620544  0.4999059120620544  0.3437029560310236   F   F   F
  0.3749059120620544  0.1249059120620544  0.4062029560310236   F   F   F
  0.4999059120620544  0.7499059120620544  0.4687029560310236   F   F   F
  0.6249059120620544  0.3749059120620544  0.5312029560310236   F   F   F
  0.7499059120620544  0.9999059120620544  0.5937029560310236   F   F   F
  0.8750105480747816  0.6251917351251673  0.6560625615110169   T   T   T
  0.0022470612636118  0.2525214637516854  0.7188727255270165   T   T   T
  0.2500940879379456  0.0000940879379456  0.3437970439689764   F   F   F
  0.3750940879379456  0.6250940879379456  0.4062970439689764   F   F   F
  0.5000940879379456  0.2500940879379456  0.4687970439689764   F   F   F
  0.6250940879379456  0.8750940879379456  0.5312970439689764   F   F   F
  0.7500940879379456  0.5000940879379456  0.5937970439689764   F   F   F
  0.8746125651298040  0.1250918078190948  0.6567219000770832   T   T   T
 -0.0032993129305012  0.7509525958404849  0.7183460701228898   T   T   T
  0.1250940879379456  0.3750940879379456  0.2812970439689764   F   F   F
  0.7500000000000000  0.2500000000000000  0.3437500000000000   F   F   F
  0.8750000000000000  0.8750000000000000  0.4062500000000000   F   F   F
  0.0000000000000000  0.5000000000000000  0.4687500000000000   F   F   F
  0.1250000000000000  0.1250000000000000  0.5312500000000000   F   F   F
  0.2500000000000000  0.7500000000000000  0.5937500000000000   F   F   F
  0.3745731296224837  0.3779928512942229  0.6564909220534649   T   T   T
  0.4994786676186847  0.0002062535223674  0.7182028205030039   T   T   T
  0.6250000000000000  0.6250000000000000  0.2812500000000000   F   F   F
  0.6250000000000000  0.3750000000000000  0.4062500000000000   F   F   F
  0.7500000000000000  0.0000000000000000  0.4687500000000000   F   F   F
  0.8750000000000000  0.6250000000000000  0.5312500000000000   F   F   F
  0.0000000000000000  0.2500000000000000  0.5937500000000000   F   F   F
  0.1238230215730586  0.8774352404732644  0.6562704703725342   T   T   T
  0.2514720523185647  0.4984853856163359  0.7221876495358539   T   T   T
  0.3750000000000000  0.1250000000000000  0.2812500000000000   F   F   F
  0.5000000000000000  0.7500000000000000  0.3437500000000000   F   F   F
  0.0000000000000000  0.2500000000000000  0.3437500000000000   F   F   F
  0.1250000000000000  0.8750000000000000  0.4062500000000000   F   F   F
  0.2500000000000000  0.5000000000000000  0.4687500000000000   F   F   F
  0.3750000000000000  0.1250000000000000  0.5312500000000000   F   F   F
  0.5000000000000000  0.7500000000000000  0.5937500000000000   F   F   F
  0.6257330181147598  0.3755875391900834  0.6562141972798071   T   T   T
  0.7486711169460414  0.0009242900477156  0.7182945392405067   T   T   T
  0.8750000000000000  0.6250000000000000  0.2812500000000000   F   F   F
  0.8749059120620544  0.1249059120620544  0.4062029560310236   F   F   F
  0.9999059120620544  0.7499059120620544  0.4687029560310236   F   F   F
  0.1249059120620544  0.3749059120620544  0.5312029560310236   F   F   F
  0.2499059120620544  0.9999059120620544  0.5937029560310236   F   F   F
  0.3750013882219537  0.6252198100796029  0.6564655535355605   T   T   T
  0.4998711317808559  0.2475065082529718  0.7162177209826617   T   T   T
  0.6249059120620544  0.8749059120620544  0.2812029560310236   F   F   F
  0.7499059120620544  0.4999059120620544  0.3437029560310236   F   F   F
  0.7500940879379456  0.0000940879379456  0.3437970439689764   F   F   F
  0.8750940879379456  0.6250940879379456  0.4062970439689764   F   F   F
  0.0000940879379456  0.2500940879379456  0.4687970439689764   F   F   F
  0.1250940879379456  0.8750940879379456  0.5312970439689764   F   F   F
  0.2500940879379456  0.5000940879379456  0.5937970439689764   F   F   F
  0.3746546976523502  0.1259367984954604  0.6562097651420641   T   T   T
  0.4978923381855970  0.7525226083803618  0.7164146611366083   T   T   T
  0.6250940879379456  0.3750940879379456  0.2812970439689764   F   F   F
  0.1250000000000000  0.1250000000000000  0.2812500000000000   F   F   F
  0.2500000000000000  0.7500000000000000  0.3437500000000000   F   F   F
  0.3750000000000000  0.3750000000000000  0.4062500000000000   F   F   F
  0.5000000000000000  0.0000000000000000  0.4687500000000000   F   F   F
  0.6250000000000000  0.6250000000000000  0.5312500000000000   F   F   F
  0.7500000000000000  0.2500000000000000  0.5937500000000000   F   F   F
  0.8747072065948593  0.8754177246655257  0.6561424624267592   T   T   T
  0.0025724221461464  0.5019605998079595  0.7155142458719598   T   T   T
  0.6245069445799984  0.1251643518066672  0.4063321759033371   F   F   F
  0.7495069445799984  0.7501643518066672  0.4688321759033371   F   F   F
  0.8745069445799984  0.3751643518066672  0.5313321759033371   F   F   F
  0.9995069445799984  0.0001643518066672  0.5938321759033371   F   F   F
  0.1257592010631955  0.6267601117899038  0.6568201119368782   T   T   T
  0.2529705445791893  0.2517236441061184  0.7161038298864727   T   T   T
  0.3745069445799913  0.8751643518066672  0.2813321759033371   F   F   F
  0.4995069445799984  0.5001643518066672  0.3438321759033371   F   F   F
  0.0004930554200016  0.9998356481933328  0.3436678240966629   F   F   F
  0.1254930554200016  0.6248356481933328  0.4061678240966629   F   F   F
  0.2504930554200016  0.2498356481933328  0.4686678240966629   F   F   F
  0.3754930554200016  0.8748356481933328  0.5311678240966629   F   F   F
  0.5004930554200016  0.4998356481933328  0.5936678240966629   F   F   F
  0.6263282443729129  0.1250445494091209  0.6557232172370976   T   T   T
  0.7470099644598042  0.7523319788619319  0.7154138355751762   T   T   T
  0.8754930554200016  0.3748356481933328  0.2811678240966629   F   F   F
  0.6250000000000000  0.1250000000000000  0.2812500000000000   F   F   F
  0.7500000000000000  0.7500000000000000  0.3437500000000000   F   F   F
  0.8750000000000000  0.3750000000000000  0.4062500000000000   F   F   F
  0.0000000000000000  0.0000000000000000  0.4687500000000000   F   F   F
  0.1250000000000000  0.6250000000000000  0.5312500000000000   F   F   F
  0.2500000000000000  0.2500000000000000  0.5937500000000000   F   F   F
  0.3733499314918722  0.8761054150417669  0.6560095640604680   T   T   T
  0.5066715946209756  0.4963456035631482  0.7198905593436165   T   T   T
  0.8745069445799984  0.8751643518066672  0.2813321759033371   F   F   F
  0.9995069445799984  0.5001643518066672  0.3438321759033371   F   F   F
  0.1245069445799984  0.1251643518066672  0.4063321759033371   F   F   F
  0.2495069445799984  0.7501643518066672  0.4688321759033371   F   F   F
  0.3745069445799984  0.3751643518066672  0.5313321759033371   F   F   F
  0.4995069445799984  0.0001643518066672  0.5938321759033371   F   F   F
  0.6243260672933572  0.6244665299329532  0.6561051310913407   T   T   T
  0.7500192600252080  0.2474890396968112  0.7165670734730564   T   T   T
  0.5004930554200016  0.9998356481933328  0.3436678240966629   F   F   F
  0.6254930554200016  0.6248356481933328  0.4061678240966629   F   F   F
  0.7504930554200016  0.2498356481933328  0.4686678240966629   F   F   F
  0.8754930554200016  0.8748356481933328  0.5311678240966629   F   F   F
  0.0004930554200016  0.4998356481933328  0.5936678240966629   F   F   F
  0.1247176898503574  0.1262836542857941  0.6562342573287646   T   T   T
  0.2454830973648783  0.7550161483466424  0.7164682788891222   T   T   T
  0.3754930554200016  0.3748356481933328  0.2811678240966629   F   F   F
  0.6970857575302537  0.3865957559381487  0.7725294047034392   T   T   T
  0.3457364541476330  0.6254954130525276  0.7709172182079674   T   T   T
 
  0.00000000E+00  0.00000000E+00  0.00000000E+00
  0.00000000E+00  0.00000000E+00  0.00000000E+00
  0.00000000E+00  0.00000000E+00  0.00000000E+00
  0.00000000E+00  0.00000000E+00  0.00000000E+00
  0.00000000E+00  0.00000000E+00  0.00000000E+00
  0.00000000E+00  0.00000000E+00  0.00000000E+00
  0.00000000E+00  0.00000000E+00  0.00000000E+00
  0.00000000E+00  0.00000000E+00  0.00000000E+00
  0.00000000E+00  0.00000000E+00  0.00000000E+00
  0.00000000E+00  0.00000000E+00  0.00000000E+00
  0.00000000E+00  0.00000000E+00  0.00000000E+00
  0.00000000E+00  0.00000000E+00  0.00000000E+00
  0.00000000E+00  0.00000000E+00  0.00000000E+00
  0.00000000E+00  0.00000000E+00  0.00000000E+00
  0.00000000E+00  0.00000000E+00  0.00000000E+00
  0.00000000E+00  0.00000000E+00  0.00000000E+00
  0.00000000E+00  0.00000000E+00  0.00000000E+00
  0.00000000E+00  0.00000000E+00  0.00000000E+00
  0.00000000E+00  0.00000000E+00  0.00000000E+00
  0.00000000E+00  0.00000000E+00  0.00000000E+00
  0.00000000E+00  0.00000000E+00  0.00000000E+00
  0.00000000E+00  0.00000000E+00  0.00000000E+00
  0.00000000E+00  0.00000000E+00  0.00000000E+00
  0.00000000E+00  0.00000000E+00  0.00000000E+00
  0.00000000E+00  0.00000000E+00  0.00000000E+00
  0.00000000E+00  0.00000000E+00  0.00000000E+00
  0.00000000E+00  0.00000000E+00  0.00000000E+00
  0.00000000E+00  0.00000000E+00  0.00000000E+00
  0.00000000E+00  0.00000000E+00  0.00000000E+00
  0.00000000E+00  0.00000000E+00  0.00000000E+00
  0.00000000E+00  0.00000000E+00  0.00000000E+00
  0.00000000E+00  0.00000000E+00  0.00000000E+00
  0.00000000E+00  0.00000000E+00  0.00000000E+00
  0.00000000E+00  0.00000000E+00  0.00000000E+00
  0.00000000E+00  0.00000000E+00  0.00000000E+00
  0.00000000E+00  0.00000000E+00  0.00000000E+00
  0.00000000E+00  0.00000000E+00  0.00000000E+00
  0.00000000E+00  0.00000000E+00  0.00000000E+00
  0.00000000E+00  0.00000000E+00  0.00000000E+00
  0.00000000E+00  0.00000000E+00  0.00000000E+00
  0.00000000E+00  0.00000000E+00  0.00000000E+00
  0.00000000E+00  0.00000000E+00  0.00000000E+00
  0.00000000E+00  0.00000000E+00  0.00000000E+00
  0.00000000E+00  0.00000000E+00  0.00000000E+00
  0.00000000E+00  0.00000000E+00  0.00000000E+00
  0.00000000E+00  0.00000000E+00  0.00000000E+00
  0.00000000E+00  0.00000000E+00  0.00000000E+00
  0.00000000E+00  0.00000000E+00  0.00000000E+00
  0.00000000E+00  0.00000000E+00  0.00000000E+00
  0.00000000E+00  0.00000000E+00  0.00000000E+00
  0.00000000E+00  0.00000000E+00  0.00000000E+00
  0.00000000E+00  0.00000000E+00  0.00000000E+00
  0.00000000E+00  0.00000000E+00  0.00000000E+00
  0.00000000E+00  0.00000000E+00  0.00000000E+00
  0.00000000E+00  0.00000000E+00  0.00000000E+00
  0.00000000E+00  0.00000000E+00  0.00000000E+00
  0.00000000E+00  0.00000000E+00  0.00000000E+00
  0.00000000E+00  0.00000000E+00  0.00000000E+00
  0.00000000E+00  0.00000000E+00  0.00000000E+00
  0.00000000E+00  0.00000000E+00  0.00000000E+00
  0.00000000E+00  0.00000000E+00  0.00000000E+00
  0.00000000E+00  0.00000000E+00  0.00000000E+00
  0.00000000E+00  0.00000000E+00  0.00000000E+00
  0.00000000E+00  0.00000000E+00  0.00000000E+00
  0.00000000E+00  0.00000000E+00  0.00000000E+00
  0.00000000E+00  0.00000000E+00  0.00000000E+00
  0.00000000E+00  0.00000000E+00  0.00000000E+00
  0.00000000E+00  0.00000000E+00  0.00000000E+00
  0.00000000E+00  0.00000000E+00  0.00000000E+00
  0.00000000E+00  0.00000000E+00  0.00000000E+00
  0.00000000E+00  0.00000000E+00  0.00000000E+00
  0.00000000E+00  0.00000000E+00  0.00000000E+00
  0.00000000E+00  0.00000000E+00  0.00000000E+00
  0.00000000E+00  0.00000000E+00  0.00000000E+00
  0.00000000E+00  0.00000000E+00  0.00000000E+00
  0.00000000E+00  0.00000000E+00  0.00000000E+00
  0.00000000E+00  0.00000000E+00  0.00000000E+00
  0.00000000E+00  0.00000000E+00  0.00000000E+00
  0.00000000E+00  0.00000000E+00  0.00000000E+00
  0.00000000E+00  0.00000000E+00  0.00000000E+00
  0.00000000E+00  0.00000000E+00  0.00000000E+00
  0.00000000E+00  0.00000000E+00  0.00000000E+00
  0.00000000E+00  0.00000000E+00  0.00000000E+00
  0.00000000E+00  0.00000000E+00  0.00000000E+00
  0.00000000E+00  0.00000000E+00  0.00000000E+00
  0.00000000E+00  0.00000000E+00  0.00000000E+00
  0.00000000E+00  0.00000000E+00  0.00000000E+00
  0.00000000E+00  0.00000000E+00  0.00000000E+00
  0.00000000E+00  0.00000000E+00  0.00000000E+00
  0.00000000E+00  0.00000000E+00  0.00000000E+00
  0.00000000E+00  0.00000000E+00  0.00000000E+00
  0.00000000E+00  0.00000000E+00  0.00000000E+00
  0.00000000E+00  0.00000000E+00  0.00000000E+00
  0.00000000E+00  0.00000000E+00  0.00000000E+00
  0.00000000E+00  0.00000000E+00  0.00000000E+00
  0.00000000E+00  0.00000000E+00  0.00000000E+00
  0.00000000E+00  0.00000000E+00  0.00000000E+00
  0.00000000E+00  0.00000000E+00  0.00000000E+00
  0.00000000E+00  0.00000000E+00  0.00000000E+00
  0.00000000E+00  0.00000000E+00  0.00000000E+00
  0.00000000E+00  0.00000000E+00  0.00000000E+00
  0.00000000E+00  0.00000000E+00  0.00000000E+00
  0.00000000E+00  0.00000000E+00  0.00000000E+00
  0.00000000E+00  0.00000000E+00  0.00000000E+00
  0.00000000E+00  0.00000000E+00  0.00000000E+00
  0.00000000E+00  0.00000000E+00  0.00000000E+00
  0.00000000E+00  0.00000000E+00  0.00000000E+00
  0.00000000E+00  0.00000000E+00  0.00000000E+00
  0.00000000E+00  0.00000000E+00  0.00000000E+00
  0.00000000E+00  0.00000000E+00  0.00000000E+00
  0.00000000E+00  0.00000000E+00  0.00000000E+00
  0.00000000E+00  0.00000000E+00  0.00000000E+00
  0.00000000E+00  0.00000000E+00  0.00000000E+00
  0.00000000E+00  0.00000000E+00  0.00000000E+00
  0.00000000E+00  0.00000000E+00  0.00000000E+00
  0.00000000E+00  0.00000000E+00  0.00000000E+00
  0.00000000E+00  0.00000000E+00  0.00000000E+00
  0.00000000E+00  0.00000000E+00  0.00000000E+00
  0.00000000E+00  0.00000000E+00  0.00000000E+00
  0.00000000E+00  0.00000000E+00  0.00000000E+00
  0.00000000E+00  0.00000000E+00  0.00000000E+00
  0.00000000E+00  0.00000000E+00  0.00000000E+00
  0.00000000E+00  0.00000000E+00  0.00000000E+00
  0.00000000E+00  0.00000000E+00  0.00000000E+00
  0.00000000E+00  0.00000000E+00  0.00000000E+00
  0.00000000E+00  0.00000000E+00  0.00000000E+00
  0.00000000E+00  0.00000000E+00  0.00000000E+00
  0.00000000E+00  0.00000000E+00  0.00000000E+00
  0.00000000E+00  0.00000000E+00  0.00000000E+00
  0.00000000E+00  0.00000000E+00  0.00000000E+00
  0.00000000E+00  0.00000000E+00  0.00000000E+00
  0.00000000E+00  0.00000000E+00  0.00000000E+00
