Na2 Fe80 Co48 S1                        
   1.00000000000000     
     9.9634609571490849    0.0000000000000000    0.0151289699723956
     3.3293508209972562    9.3783526600373399    0.0293803574974442
     0.0000000000000000    0.0000000000000000   32.5363995958672376
   Na   Fe   Co   S 
     2    80    48     1
Selective dynamics
Direct
  0.6727362343596028  0.8580219902854945  0.7962822184052180   T   T   T
  0.0844725448591227  0.1026715643289633  0.7986875440345841   T   T   T
 -0.0013969899871203 -0.0004928416671724  0.7172786535534952   T   T   T
  0.1250000000000000  0.6250000000000000  0.2812500000000000   F   F   F
  0.2500000000000000  0.2500000000000000  0.3437500000000000   F   F   F
  0.3750000000000000  0.8750000000000000  0.4062500000000000   F   F   F
  0.5000000000000000  0.5000000000000000  0.4687500000000000   F   F   F
  0.6250000000000000  0.1250000000000000  0.5312500000000000   F   F   F
  0.7500000000000000  0.7500000000000000  0.5937500000000000   F   F   F
  0.8737258224396829  0.3752534364760481  0.6559834883093508   T   T   T
  0.8750000000000000  0.1250000000000000  0.2812500000000000   F   F   F
  0.0000000000000000  0.7500000000000000  0.3437500000000000   F   F   F
  0.1250000000000000  0.3750000000000000  0.4062500000000000   F   F   F
  0.2500000000000000  0.0000000000000000  0.4687500000000000   F   F   F
  0.3750000000000000  0.6250000000000000  0.5312500000000000   F   F   F
  0.5000000000000000  0.2500000000000000  0.5937500000000000   F   F   F
  0.6245305347987420  0.8758134584717748  0.6560254594141678   T   T   T
  0.7499803574715814  0.4995347218502327  0.7196445245992983   T   T   T
  0.5000000000000000  0.2500000000000000  0.3437500000000000   F   F   F
  0.6250000000000000  0.8750000000000000  0.4062500000000000   F   F   F
  0.7500000000000000  0.5000000000000000  0.4687500000000000   F   F   F
  0.8750000000000000  0.1250000000000000  0.5312500000000000   F   F   F
  0.0000000000000000  0.7500000000000000  0.5937500000000000   F   F   F
  0.1256417088900553  0.3736506221703348  0.6569915387349065   T   T   T
  0.2463119361272066 -0.0033742856663453  0.7200417709185518   T   T   T
  0.3750000000000000  0.6250000000000000  0.2812500000000000   F   F   F
  0.1249059120615001  0.8749059120615001  0.2812029560307536   F   F   F
  0.2499059120615001  0.4999059120615001  0.3437029560307536   F   F   F
  0.3749059120615001  0.1249059120615001  0.4062029560307536   F   F   F
  0.4999059120615001  0.7499059120615001  0.4687029560307536   F   F   F
  0.6249059120615001  0.3749059120615001  0.5312029560307465   F   F   F
  0.7499059120615001  0.9999059120615001  0.5937029560307536   F   F   F
  0.8764127446700957  0.6238682007710832  0.6560730941951514   T   T   T
  0.9960315433193524  0.2515385532520791  0.7170936197770873   T   T   T
  0.2500940879384999  0.0000940879384999  0.3437970439692464   F   F   F
  0.3750940879384999  0.6250940879384999  0.4062970439692464   F   F   F
  0.5000940879384999  0.2500940879384999  0.4687970439692464   F   F   F
  0.6250940879384999  0.8750940879384999  0.5312970439692464   F   F   F
  0.7500940879384999  0.5000940879384999  0.5937970439692464   F   F   F
  0.8744332817800539  0.1242743070079457  0.6561629064538838   T   T   T
 -0.0011630703960597  0.7477114959871587  0.7191099909425315   T   T   T
  0.1250940879384999  0.3750940879384999  0.2812970439692464   F   F   F
  0.7500000000000000  0.2500000000000000  0.3437500000000000   F   F   F
  0.8750000000000000  0.8750000000000000  0.4062500000000000   F   F   F
  0.0000000000000000  0.5000000000000000  0.4687500000000000   F   F   F
  0.1250000000000000  0.1250000000000000  0.5312500000000000   F   F   F
  0.2500000000000000  0.7500000000000000  0.5937500000000000   F   F   F
  0.3749966391481249  0.3735916033756758  0.6566790234070264   T   T   T
  0.5053715481623510 -0.0041915704461021  0.7191361785025375   T   T   T
  0.6250000000000000  0.6250000000000000  0.2812500000000000   F   F   F
  0.6250000000000000  0.3750000000000000  0.4062500000000000   F   F   F
  0.7500000000000000  0.0000000000000000  0.4687500000000000   F   F   F
  0.8750000000000000  0.6250000000000000  0.5312500000000000   F   F   F
  0.0000000000000000  0.2500000000000000  0.5937500000000000   F   F   F
  0.1253008440753368  0.8750305226634392  0.6563865284198419   T   T   T
  0.2494942393453902  0.4986980466786009  0.7195268803898259   T   T   T
  0.3750000000000000  0.1250000000000000  0.2812500000000000   F   F   F
  0.5000000000000000  0.7500000000000000  0.3437500000000000   F   F   F
  0.0000000000000000  0.2500000000000000  0.3437500000000000   F   F   F
  0.1250000000000000  0.8750000000000000  0.4062500000000000   F   F   F
  0.2500000000000000  0.5000000000000000  0.4687500000000000   F   F   F
  0.3750000000000000  0.1250000000000000  0.5312500000000000   F   F   F
  0.5000000000000000  0.7500000000000000  0.5937500000000000   F   F   F
  0.6246075817202068  0.3741762195959942  0.6564892237966380   T   T   T
  0.7516776057465734 -0.0022560995462550  0.7172154147721255   T   T   T
  0.8750000000000000  0.6250000000000000  0.2812500000000000   F   F   F
  0.8749059120615001  0.1249059120615001  0.4062029560307536   F   F   F
  0.9999059120615001  0.7499059120615001  0.4687029560307536   F   F   F
  0.1249059120615001  0.3749059120615001  0.5312029560307465   F   F   F
  0.2499059120615001  0.9999059120615001  0.5937029560307465   F   F   F
  0.3749569080666384  0.6245455188168878  0.6563138894436769   T   T   T
  0.5012901605164466  0.2510538070877785  0.7196502439353571   T   T   T
  0.6249059120615001  0.8749059120615001  0.2812029560307465   F   F   F
  0.7499059120615001  0.4999059120615001  0.3437029560307536   F   F   F
  0.7500940879384999  0.0000940879384999  0.3437970439692464   F   F   F
  0.8750940879384999  0.6250940879384999  0.4062970439692464   F   F   F
  0.0000940879384999  0.2500940879384999  0.4687970439692464   F   F   F
  0.1250940879384999  0.8750940879384999  0.5312970439692464   F   F   F
  0.2500940879384999  0.5000940879384999  0.5937970439692464   F   F   F
  0.3744939706772028  0.1236164297709379  0.6571196877994234   T   T   T
  0.5014637296448105  0.7453873491965763  0.7189120925377048   T   T   T
  0.6250940879384999  0.3750940879384999  0.2812970439692464   F   F   F
  0.1250000000000000  0.1250000000000000  0.2812500000000000   F   F   F
  0.2500000000000000  0.7500000000000000  0.3437500000000000   F   F   F
  0.3750000000000000  0.3750000000000000  0.4062500000000000   F   F   F
  0.5000000000000000  0.0000000000000000  0.4687500000000000   F   F   F
  0.6250000000000000  0.6250000000000000  0.5312500000000000   F   F   F
  0.7500000000000000  0.2500000000000000  0.5937500000000000   F   F   F
  0.8761114250661316  0.8739909805597718  0.6558489087428695   T   T   T
 -0.0002788348302629  0.4983272511994692  0.7160492132869856   T   T   T
  0.6245069445781013  0.1251643518072996  0.4063321759036498   F   F   F
  0.7495069445781013  0.7501643518072996  0.4688321759036498   F   F   F
  0.8745069445781013  0.3751643518072996  0.5313321759036498   F   F   F
  0.9995069445781013  0.0001643518072996  0.5938321759036498   F   F   F
  0.1248864462450101  0.6246955207955229  0.6564081252595240   T   T   T
  0.2503858809693414  0.2487014633207032  0.7172282123801071   T   T   T
  0.3745069445781013  0.8751643518072996  0.2813321759036498   F   F   F
  0.4995069445781013  0.5001643518072996  0.3438321759036498   F   F   F
  0.0004930554218987  0.9998356481927004  0.3436678240963502   F   F   F
  0.1254930554218987  0.6248356481927004  0.4061678240963502   F   F   F
  0.2504930554218987  0.2498356481927004  0.4686678240963502   F   F   F
  0.3754930554218987  0.8748356481927004  0.5311678240963502   F   F   F
  0.5004930554218987  0.4998356481927004  0.5936678240963502   F   F   F
  0.6241653272737294  0.1242923865396718  0.6563087174124121   T   T   T
  0.7511800054023781  0.7486311856227283  0.7143225697443658   T   T   T
  0.8754930554218987  0.3748356481927004  0.2811678240963502   F   F   F
  0.6250000000000000  0.1250000000000000  0.2812500000000000   F   F   F
  0.7500000000000000  0.7500000000000000  0.3437500000000000   F   F   F
  0.8750000000000000  0.3750000000000000  0.4062500000000000   F   F   F
  0.0000000000000000  0.0000000000000000  0.4687500000000000   F   F   F
  0.1250000000000000  0.6250000000000000  0.5312500000000000   F   F   F
  0.2500000000000000  0.2500000000000000  0.5937500000000000   F   F   F
  0.3760376302344785  0.8742872292844789  0.6564513581014217   T   T   T
  0.4992414490625210  0.4985085218980008  0.7155720892654609   T   T   T
  0.8745069445781013  0.8751643518072996  0.2813321759036498   F   F   F
  0.9995069445781013  0.5001643518072996  0.3438321759036498   F   F   F
  0.1245069445781013  0.1251643518072996  0.4063321759036498   F   F   F
  0.2495069445781013  0.7501643518072996  0.4688321759036498   F   F   F
  0.3745069445781013  0.3751643518072996  0.5313321759036498   F   F   F
  0.4995069445781013  0.0001643518072996  0.5938321759036498   F   F   F
  0.6246883448962023  0.6247258794150209  0.6564306112647268   T   T   T
  0.7510283549572833  0.2468379502425521  0.7160414229467320   T   T   T
  0.5004930554218987  0.9998356481927004  0.3436678240963502   F   F   F
  0.6254930554218987  0.6248356481927004  0.4061678240963502   F   F   F
  0.7504930554218987  0.2498356481927004  0.4686678240963502   F   F   F
  0.8754930554218987  0.8748356481927004  0.5311678240963502   F   F   F
  0.0004930554218987  0.4998356481927004  0.5936678240963502   F   F   F
  0.1251426962306462  0.1233190548425502  0.6561279507775200   T   T   T
  0.2479004148312070  0.7477355579436805  0.7152189641483092   T   T   T
  0.3754930554218987  0.3748356481927004  0.2811678240963502   F   F   F
  0.3742858830682077  0.0179470608497521  0.7762488705919783   T   T   T
 
  0.00000000E+00  0.00000000E+00  0.00000000E+00
  0.00000000E+00  0.00000000E+00  0.00000000E+00
  0.00000000E+00  0.00000000E+00  0.00000000E+00
  0.00000000E+00  0.00000000E+00  0.00000000E+00
  0.00000000E+00  0.00000000E+00  0.00000000E+00
  0.00000000E+00  0.00000000E+00  0.00000000E+00
  0.00000000E+00  0.00000000E+00  0.00000000E+00
  0.00000000E+00  0.00000000E+00  0.00000000E+00
  0.00000000E+00  0.00000000E+00  0.00000000E+00
  0.00000000E+00  0.00000000E+00  0.00000000E+00
  0.00000000E+00  0.00000000E+00  0.00000000E+00
  0.00000000E+00  0.00000000E+00  0.00000000E+00
  0.00000000E+00  0.00000000E+00  0.00000000E+00
  0.00000000E+00  0.00000000E+00  0.00000000E+00
  0.00000000E+00  0.00000000E+00  0.00000000E+00
  0.00000000E+00  0.00000000E+00  0.00000000E+00
  0.00000000E+00  0.00000000E+00  0.00000000E+00
  0.00000000E+00  0.00000000E+00  0.00000000E+00
  0.00000000E+00  0.00000000E+00  0.00000000E+00
  0.00000000E+00  0.00000000E+00  0.00000000E+00
  0.00000000E+00  0.00000000E+00  0.00000000E+00
  0.00000000E+00  0.00000000E+00  0.00000000E+00
  0.00000000E+00  0.00000000E+00  0.00000000E+00
  0.00000000E+00  0.00000000E+00  0.00000000E+00
  0.00000000E+00  0.00000000E+00  0.00000000E+00
  0.00000000E+00  0.00000000E+00  0.00000000E+00
  0.00000000E+00  0.00000000E+00  0.00000000E+00
  0.00000000E+00  0.00000000E+00  0.00000000E+00
  0.00000000E+00  0.00000000E+00  0.00000000E+00
  0.00000000E+00  0.00000000E+00  0.00000000E+00
  0.00000000E+00  0.00000000E+00  0.00000000E+00
  0.00000000E+00  0.00000000E+00  0.00000000E+00
  0.00000000E+00  0.00000000E+00  0.00000000E+00
  0.00000000E+00  0.00000000E+00  0.00000000E+00
  0.00000000E+00  0.00000000E+00  0.00000000E+00
  0.00000000E+00  0.00000000E+00  0.00000000E+00
  0.00000000E+00  0.00000000E+00  0.00000000E+00
  0.00000000E+00  0.00000000E+00  0.00000000E+00
  0.00000000E+00  0.00000000E+00  0.00000000E+00
  0.00000000E+00  0.00000000E+00  0.00000000E+00
  0.00000000E+00  0.00000000E+00  0.00000000E+00
  0.00000000E+00  0.00000000E+00  0.00000000E+00
  0.00000000E+00  0.00000000E+00  0.00000000E+00
  0.00000000E+00  0.00000000E+00  0.00000000E+00
  0.00000000E+00  0.00000000E+00  0.00000000E+00
  0.00000000E+00  0.00000000E+00  0.00000000E+00
  0.00000000E+00  0.00000000E+00  0.00000000E+00
  0.00000000E+00  0.00000000E+00  0.00000000E+00
  0.00000000E+00  0.00000000E+00  0.00000000E+00
  0.00000000E+00  0.00000000E+00  0.00000000E+00
  0.00000000E+00  0.00000000E+00  0.00000000E+00
  0.00000000E+00  0.00000000E+00  0.00000000E+00
  0.00000000E+00  0.00000000E+00  0.00000000E+00
  0.00000000E+00  0.00000000E+00  0.00000000E+00
  0.00000000E+00  0.00000000E+00  0.00000000E+00
  0.00000000E+00  0.00000000E+00  0.00000000E+00
  0.00000000E+00  0.00000000E+00  0.00000000E+00
  0.00000000E+00  0.00000000E+00  0.00000000E+00
  0.00000000E+00  0.00000000E+00  0.00000000E+00
  0.00000000E+00  0.00000000E+00  0.00000000E+00
  0.00000000E+00  0.00000000E+00  0.00000000E+00
  0.00000000E+00  0.00000000E+00  0.00000000E+00
  0.00000000E+00  0.00000000E+00  0.00000000E+00
  0.00000000E+00  0.00000000E+00  0.00000000E+00
  0.00000000E+00  0.00000000E+00  0.00000000E+00
  0.00000000E+00  0.00000000E+00  0.00000000E+00
  0.00000000E+00  0.00000000E+00  0.00000000E+00
  0.00000000E+00  0.00000000E+00  0.00000000E+00
  0.00000000E+00  0.00000000E+00  0.00000000E+00
  0.00000000E+00  0.00000000E+00  0.00000000E+00
  0.00000000E+00  0.00000000E+00  0.00000000E+00
  0.00000000E+00  0.00000000E+00  0.00000000E+00
  0.00000000E+00  0.00000000E+00  0.00000000E+00
  0.00000000E+00  0.00000000E+00  0.00000000E+00
  0.00000000E+00  0.00000000E+00  0.00000000E+00
  0.00000000E+00  0.00000000E+00  0.00000000E+00
  0.00000000E+00  0.00000000E+00  0.00000000E+00
  0.00000000E+00  0.00000000E+00  0.00000000E+00
  0.00000000E+00  0.00000000E+00  0.00000000E+00
  0.00000000E+00  0.00000000E+00  0.00000000E+00
  0.00000000E+00  0.00000000E+00  0.00000000E+00
  0.00000000E+00  0.00000000E+00  0.00000000E+00
  0.00000000E+00  0.00000000E+00  0.00000000E+00
  0.00000000E+00  0.00000000E+00  0.00000000E+00
  0.00000000E+00  0.00000000E+00  0.00000000E+00
  0.00000000E+00  0.00000000E+00  0.00000000E+00
  0.00000000E+00  0.00000000E+00  0.00000000E+00
  0.00000000E+00  0.00000000E+00  0.00000000E+00
  0.00000000E+00  0.00000000E+00  0.00000000E+00
  0.00000000E+00  0.00000000E+00  0.00000000E+00
  0.00000000E+00  0.00000000E+00  0.00000000E+00
  0.00000000E+00  0.00000000E+00  0.00000000E+00
  0.00000000E+00  0.00000000E+00  0.00000000E+00
  0.00000000E+00  0.00000000E+00  0.00000000E+00
  0.00000000E+00  0.00000000E+00  0.00000000E+00
  0.00000000E+00  0.00000000E+00  0.00000000E+00
  0.00000000E+00  0.00000000E+00  0.00000000E+00
  0.00000000E+00  0.00000000E+00  0.00000000E+00
  0.00000000E+00  0.00000000E+00  0.00000000E+00
  0.00000000E+00  0.00000000E+00  0.00000000E+00
  0.00000000E+00  0.00000000E+00  0.00000000E+00
  0.00000000E+00  0.00000000E+00  0.00000000E+00
  0.00000000E+00  0.00000000E+00  0.00000000E+00
  0.00000000E+00  0.00000000E+00  0.00000000E+00
  0.00000000E+00  0.00000000E+00  0.00000000E+00
  0.00000000E+00  0.00000000E+00  0.00000000E+00
  0.00000000E+00  0.00000000E+00  0.00000000E+00
  0.00000000E+00  0.00000000E+00  0.00000000E+00
  0.00000000E+00  0.00000000E+00  0.00000000E+00
  0.00000000E+00  0.00000000E+00  0.00000000E+00
  0.00000000E+00  0.00000000E+00  0.00000000E+00
  0.00000000E+00  0.00000000E+00  0.00000000E+00
  0.00000000E+00  0.00000000E+00  0.00000000E+00
  0.00000000E+00  0.00000000E+00  0.00000000E+00
  0.00000000E+00  0.00000000E+00  0.00000000E+00
  0.00000000E+00  0.00000000E+00  0.00000000E+00
  0.00000000E+00  0.00000000E+00  0.00000000E+00
  0.00000000E+00  0.00000000E+00  0.00000000E+00
  0.00000000E+00  0.00000000E+00  0.00000000E+00
  0.00000000E+00  0.00000000E+00  0.00000000E+00
  0.00000000E+00  0.00000000E+00  0.00000000E+00
  0.00000000E+00  0.00000000E+00  0.00000000E+00
  0.00000000E+00  0.00000000E+00  0.00000000E+00
  0.00000000E+00  0.00000000E+00  0.00000000E+00
  0.00000000E+00  0.00000000E+00  0.00000000E+00
  0.00000000E+00  0.00000000E+00  0.00000000E+00
  0.00000000E+00  0.00000000E+00  0.00000000E+00
  0.00000000E+00  0.00000000E+00  0.00000000E+00
  0.00000000E+00  0.00000000E+00  0.00000000E+00
  0.00000000E+00  0.00000000E+00  0.00000000E+00
  0.00000000E+00  0.00000000E+00  0.00000000E+00
