K12 V48 O119                            
   1.00000000000000     
    11.0554125600000006    0.0000000000000000    0.0000000000000007
    -0.0000000000000007   11.6356429800000001    0.0000000000000007
     0.0000000000000000    0.0000000000000000   18.6053069399999984
   K    V    O 
    12    48   119
Selective dynamics
Direct
  0.0003856680735965  0.5715571285428598  0.2512329686461848   T   T   T
  0.3307768266832825  0.5729217146501403  0.2484997445236323   T   T   T
  0.6703855153390479  0.5714975497619498  0.2492263186180208   T   T   T
  0.0000000000000000  0.4217462399999974  0.7500000000000000   F   F   F
  0.3333333333333357  0.4217462399999974  0.7500000000000000   F   F   F
  0.6666666666666643  0.4217462399999974  0.7500000000000000   F   F   F
  0.1665079880826405  0.0816459467407055  0.2503638335050841   T   T   T
  0.5000000000000000  0.0782537600000026  0.2500000000000000   F   F   F
  0.8336673049449143  0.0820952102101604  0.2479953562027458   T   T   T
  0.8333333333333357  0.9217462399999974  0.7500000000000000   F   F   F
  0.1666666666666643  0.9217462399999974  0.7500000000000000   F   F   F
  0.5000000000000000  0.9217462399999974  0.7500000000000000   F   F   F
  1.0001573825677164  0.9332156823731402  0.4202756679205538   T   T   T
  0.3333333333333357  0.9347524800000002  0.4219866099999976   F   F   F
  0.6666666666666643  0.9347524800000002  0.4219866099999976   F   F   F
 -0.0009578121243542  0.0676963054809077  0.5784705500268232   T   T   T
  0.3333333333333357  0.0652475199999998  0.5780133900000024   F   F   F
  0.6666666666666643  0.0652475199999998  0.5780133900000024   F   F   F
  0.0000000000000000  0.9347524800000002  0.0780133900000024   F   F   F
  0.3333333333333357  0.9347524800000002  0.0780133900000024   F   F   F
  0.6666666666666643  0.9347524800000002  0.0780133900000024   F   F   F
  0.0000000000000000  0.0652475199999998  0.9219866099999976   F   F   F
  0.3333333333333357  0.0652475199999998  0.9219866099999976   F   F   F
  0.6666666666666643  0.0652475199999998  0.9219866099999976   F   F   F
  0.1760347122390269  0.4376941110716947  0.4293652273978936   T   T   T
  0.5000000000000000  0.4347524800000002  0.4219866099999976   F   F   F
  0.8254178798834100  0.4330869831533954  0.4303487088652319   T   T   T
  0.8346650333898837  0.5688518491604068  0.5766809902123581   T   T   T
  0.1661051943468506  0.5726288013501671  0.5819626156431050   T   T   T
  0.5000000000000000  0.5652475199999998  0.5780133900000024   F   F   F
  0.8333333333333357  0.4347524800000002  0.0780133900000024   F   F   F
  0.1666666666666643  0.4347524800000002  0.0780133900000024   F   F   F
  0.5000000000000000  0.4347524800000002  0.0780133900000024   F   F   F
  0.8333333333333357  0.5652475199999998  0.9219866099999976   F   F   F
  0.1666666666666643  0.5652475199999998  0.9219866099999976   F   F   F
  0.5000000000000000  0.5652475199999998  0.9219866099999976   F   F   F
  1.0004746439858352  0.2212533526327273  0.4168348650853498   T   T   T
  0.3309133459570431  0.2292926356811155  0.4168662236962407   T   T   T
  0.6662560107138014  0.2303319201645996  0.4225130533717024   T   T   T
  0.9981817341734226  0.7726499402088269  0.5805260514305689   T   T   T
  0.3333333333333357  0.7686988499999998  0.5800612000000029   F   F   F
  0.6666666666666643  0.7686988499999998  0.5800612000000029   F   F   F
  0.0000000000000000  0.2313011500000002  0.0800612000000029   F   F   F
  0.3333333333333357  0.2313011500000002  0.0800612000000029   F   F   F
  0.6666666666666643  0.2313011500000002  0.0800612000000029   F   F   F
  0.0000000000000000  0.7686988499999998  0.9199387999999971   F   F   F
  0.3333333333333357  0.7686988499999998  0.9199387999999971   F   F   F
  0.6666666666666643  0.7686988499999998  0.9199387999999971   F   F   F
  0.1660742890257785  0.7305458805259676  0.4199602796978780   T   T   T
  0.5000000000000000  0.7313011500000002  0.4199387999999971   F   F   F
  0.8343819472230942  0.7298777029910372  0.4198073386822206   T   T   T
  0.8344767962230978  0.2703803931861183  0.5804781802616894   T   T   T
  0.1657306539265787  0.2744568931037147  0.5755781004122829   T   T   T
  0.5000000000000000  0.2686988499999998  0.5800612000000029   F   F   F
  0.8333333333333357  0.7313011500000002  0.0800612000000029   F   F   F
  0.1666666666666643  0.7313011500000002  0.0800612000000029   F   F   F
  0.5000000000000000  0.7313011500000002  0.0800612000000029   F   F   F
  0.8333333333333357  0.2686988499999998  0.9199387999999971   F   F   F
  0.1666666666666643  0.2686988499999998  0.9199387999999971   F   F   F
  0.5000000000000000  0.2686988499999998  0.9199387999999971   F   F   F
 -0.0054530679065238  0.0756796501102566  0.4535302763278148   T   T   T
  0.3322341593248870  0.0766382987083048  0.4540158274579820   T   T   T
  0.6664006242312277  0.0807690990643689  0.4541500296797195   T   T   T
  0.0000000000000000  0.9198280399999987  0.5465899900000011   F   F   F
  0.3333333333333357  0.9198280399999987  0.5465899900000011   F   F   F
  0.6666666666666643  0.9198280399999987  0.5465899900000011   F   F   F
  0.0000000000000000  0.0801719600000013  0.0465899900000011   F   F   F
  0.3333333333333357  0.0801719600000013  0.0465899900000011   F   F   F
  0.6666666666666643  0.0801719600000013  0.0465899900000011   F   F   F
  0.0000000000000000  0.9198280399999987  0.9534100099999989   F   F   F
  0.3333333333333357  0.9198280399999987  0.9534100099999989   F   F   F
  0.6666666666666643  0.9198280399999987  0.9534100099999989   F   F   F
  0.1697418954058333  0.5924474989600987  0.4591818879817454   T   T   T
  0.5000000000000000  0.5801719600000013  0.4534100099999989   F   F   F
  0.8298009537307852  0.5909295716849740  0.4558751650735829   T   T   T
  0.8514179822439859  0.4258188806478967  0.5396421870434196   T   T   T
  0.1553898295606734  0.4189827664305182  0.5410177186184456   T   T   T
  0.5000000000000000  0.4198280399999987  0.5465899900000011   F   F   F
  0.1666666666666643  0.5801719600000013  0.0465899900000011   F   F   F
  0.5000000000000000  0.5801719600000013  0.0465899900000011   F   F   F
  0.8333333333333357  0.5801719600000013  0.0465899900000011   F   F   F
  0.8333333333333357  0.4198280399999987  0.9534100099999989   F   F   F
  0.1666666666666643  0.4198280399999987  0.9534100099999989   F   F   F
  0.5000000000000000  0.4198280399999987  0.9534100099999989   F   F   F
  0.0034149549986641  0.2360035004490112  0.5576012648546572   T   T   T
  0.3344703029498027  0.2396273506837061  0.5575422787878446   T   T   T
  0.6615985779059159  0.2414177892263080  0.5575286674062230   T   T   T
  0.0002320916346128  0.7619897736612420  0.4396788853372059   T   T   T
  0.3333333333333357  0.7595458799999975  0.4418101899999982   F   F   F
  0.6666666666666643  0.7595458799999975  0.4418101899999982   F   F   F
  0.0000000000000000  0.2404541200000025  0.9418101899999982   F   F   F
  0.3333333333333357  0.2404541200000025  0.9418101899999982   F   F   F
  0.6666666666666643  0.2404541200000025  0.9418101899999982   F   F   F
  0.0000000000000000  0.7595458799999975  0.0581898100000018   F   F   F
  0.3333333333333357  0.7595458799999975  0.0581898100000018   F   F   F
  0.6666666666666643  0.7595458799999975  0.0581898100000018   F   F   F
  0.8363372621985014  0.7431943619413000  0.5593222947312960   T   T   T
  0.1676056819089231  0.7462709362227216  0.5625739829099472   T   T   T
  0.5000000000000000  0.7404541200000025  0.5581898100000018   F   F   F
  0.8329274707197040  0.2608119319522973  0.4450286028415092   T   T   T
  0.1582118581414594  0.2655229232293352  0.4420291556647049   T   T   T
  0.5000000000000000  0.2595458799999975  0.4418101899999982   F   F   F
  0.8333333333333357  0.7404541200000025  0.9418101899999982   F   F   F
  0.1666666666666643  0.7404541200000025  0.9418101899999982   F   F   F
  0.5000000000000000  0.7404541200000025  0.9418101899999982   F   F   F
  0.8333333333333357  0.2595458799999975  0.0581898100000018   F   F   F
  0.1666666666666643  0.2595458799999975  0.0581898100000018   F   F   F
  0.5000000000000000  0.2595458799999975  0.0581898100000018   F   F   F
  0.9917056566296911  0.2024886954544464  0.3310462665830533   T   T   T
  0.3313487846534803  0.2050204089088258  0.3311345998632368   T   T   T
  0.6677737821963501  0.2096156119948419  0.3372600490579408   T   T   T
  0.0000000000000000  0.7914145800000014  0.6656442000000027   F   F   F
  0.3333333333333357  0.7914145800000014  0.6656442000000027   F   F   F
  0.6666666666666643  0.7914145800000014  0.6656442000000027   F   F   F
  0.0001527872231620  0.2099357918744355  0.1652084646106063   T   T   T
  0.3333333333333357  0.2085854199999986  0.1656442000000027   F   F   F
  0.6666666666666643  0.2085854199999986  0.1656442000000027   F   F   F
  0.0000000000000000  0.7914145800000014  0.8343557999999973   F   F   F
  0.3333333333333357  0.7914145800000014  0.8343557999999973   F   F   F
  0.6666666666666643  0.7914145800000014  0.8343557999999973   F   F   F
  0.8321155555736798  0.7094870273239866  0.3343844212016069   T   T   T
  0.1684269377577119  0.7080813952513730  0.3348270094060120   T   T   T
  0.5000000000000000  0.7085854199999986  0.3343557999999973   F   F   F
  0.8316277679309456  0.2973425332437381  0.6659277510292547   T   T   T
  0.1684726364708382  0.2948581504539292  0.6609442993713636   T   T   T
  0.5000000000000000  0.2914145800000014  0.6656442000000027   F   F   F
  0.8333333333333357  0.7085854199999986  0.1656442000000027   F   F   F
  0.1666666666666643  0.7085854199999986  0.1656442000000027   F   F   F
  0.5000000000000000  0.7085854199999986  0.1656442000000027   F   F   F
  0.8333333333333357  0.2914145800000014  0.8343557999999973   F   F   F
  0.1666666666666643  0.2914145800000014  0.8343557999999973   F   F   F
  0.5000000000000000  0.2914145800000014  0.8343557999999973   F   F   F
  0.3380593134829365  0.3982855033882873  0.4325494111945689   T   T   T
  0.6622491550593570  0.3972145251745320  0.4336407722164585   T   T   T
 -0.0021851881100403  0.6091678844772144  0.5664529022558527   T   T   T
  0.3375473723199475  0.6039992794974454  0.5657864452995399   T   T   T
  0.6663968024254791  0.5992350962219494  0.5641578681820381   T   T   T
  0.0000000000000000  0.3994773000000009  0.0654753499999998   F   F   F
  0.3333333333333357  0.3994773000000009  0.0654753499999998   F   F   F
  0.6666666666666643  0.3994773000000009  0.0654753499999998   F   F   F
  0.0000000000000000  0.6005226999999991  0.9345246500000002   F   F   F
  0.3333333333333357  0.6005226999999991  0.9345246500000002   F   F   F
  0.6666666666666643  0.6005226999999991  0.9345246500000002   F   F   F
  0.8333333333333357  0.8994773000000009  0.4345246500000002   F   F   F
  0.1666666666666643  0.8994773000000009  0.4345246500000002   F   F   F
  0.5000000000000000  0.8994773000000009  0.4345246500000002   F   F   F
  0.8345423560359647  0.1012173920580505  0.5665348892029392   T   T   T
  0.1681168838649607  0.1033898269968015  0.5652158397182282   T   T   T
  0.5000000000000000  0.1005226999999991  0.5654753499999998   F   F   F
  0.8333333333333357  0.8994773000000009  0.0654753499999998   F   F   F
  0.1666666666666643  0.8994773000000009  0.0654753499999998   F   F   F
  0.5000000000000000  0.8994773000000009  0.0654753499999998   F   F   F
  0.8333333333333357  0.1005226999999991  0.9345246500000002   F   F   F
  0.1666666666666643  0.1005226999999991  0.9345246500000002   F   F   F
  0.5000000000000000  0.1005226999999991  0.9345246500000002   F   F   F
  0.9990282514507578  0.9522509315026515  0.3344568184144051   T   T   T
  0.3333333333333357  0.9530042000000023  0.3358289499999998   F   F   F
  0.6666666666666643  0.9530042000000023  0.3358289499999998   F   F   F
  0.0000000000000000  0.0469957999999977  0.6641710500000002   F   F   F
  0.3333333333333357  0.0469957999999977  0.6641710500000002   F   F   F
  0.6666666666666643  0.0469957999999977  0.6641710500000002   F   F   F
  0.0000000000000000  0.9530042000000023  0.1641710500000002   F   F   F
  0.3333333333333357  0.9530042000000023  0.1641710500000002   F   F   F
  0.6666666666666643  0.9530042000000023  0.1641710500000002   F   F   F
  0.0000000000000000  0.0469957999999977  0.8358289499999998   F   F   F
  0.3333333333333357  0.0469957999999977  0.8358289499999998   F   F   F
  0.6666666666666643  0.0469957999999977  0.8358289499999998   F   F   F
  0.1407694320871972  0.4522656185560970  0.3446156049546437   T   T   T
  0.5000000000000000  0.4530042000000023  0.3358289499999998   F   F   F
  0.8648537020680502  0.4468844958238835  0.3460991188429751   T   T   T
  0.1680641078457416  0.5431990458708307  0.6674275332794045   T   T   T
  0.5000000000000000  0.5469957999999977  0.6641710500000002   F   F   F
  0.8317328167902752  0.5443608204863122  0.6619767482294472   T   T   T
  0.8328325318402190  0.4537896278812475  0.1640808448706949   T   T   T
  0.1675879172942622  0.4526769707737508  0.1641945795031929   T   T   T
  0.5000000000000000  0.4530042000000023  0.1641710500000002   F   F   F
  0.8333333333333357  0.5469957999999977  0.8358289499999998   F   F   F
  0.1666666666666643  0.5469957999999977  0.8358289499999998   F   F   F
  0.5000000000000000  0.5469957999999977  0.8358289499999998   F   F   F
 
  0.00000000E+00  0.00000000E+00  0.00000000E+00
  0.00000000E+00  0.00000000E+00  0.00000000E+00
  0.00000000E+00  0.00000000E+00  0.00000000E+00
  0.00000000E+00  0.00000000E+00  0.00000000E+00
  0.00000000E+00  0.00000000E+00  0.00000000E+00
  0.00000000E+00  0.00000000E+00  0.00000000E+00
  0.00000000E+00  0.00000000E+00  0.00000000E+00
  0.00000000E+00  0.00000000E+00  0.00000000E+00
  0.00000000E+00  0.00000000E+00  0.00000000E+00
  0.00000000E+00  0.00000000E+00  0.00000000E+00
  0.00000000E+00  0.00000000E+00  0.00000000E+00
  0.00000000E+00  0.00000000E+00  0.00000000E+00
  0.00000000E+00  0.00000000E+00  0.00000000E+00
  0.00000000E+00  0.00000000E+00  0.00000000E+00
  0.00000000E+00  0.00000000E+00  0.00000000E+00
  0.00000000E+00  0.00000000E+00  0.00000000E+00
  0.00000000E+00  0.00000000E+00  0.00000000E+00
  0.00000000E+00  0.00000000E+00  0.00000000E+00
  0.00000000E+00  0.00000000E+00  0.00000000E+00
  0.00000000E+00  0.00000000E+00  0.00000000E+00
  0.00000000E+00  0.00000000E+00  0.00000000E+00
  0.00000000E+00  0.00000000E+00  0.00000000E+00
  0.00000000E+00  0.00000000E+00  0.00000000E+00
  0.00000000E+00  0.00000000E+00  0.00000000E+00
  0.00000000E+00  0.00000000E+00  0.00000000E+00
  0.00000000E+00  0.00000000E+00  0.00000000E+00
  0.00000000E+00  0.00000000E+00  0.00000000E+00
  0.00000000E+00  0.00000000E+00  0.00000000E+00
  0.00000000E+00  0.00000000E+00  0.00000000E+00
  0.00000000E+00  0.00000000E+00  0.00000000E+00
  0.00000000E+00  0.00000000E+00  0.00000000E+00
  0.00000000E+00  0.00000000E+00  0.00000000E+00
  0.00000000E+00  0.00000000E+00  0.00000000E+00
  0.00000000E+00  0.00000000E+00  0.00000000E+00
  0.00000000E+00  0.00000000E+00  0.00000000E+00
  0.00000000E+00  0.00000000E+00  0.00000000E+00
  0.00000000E+00  0.00000000E+00  0.00000000E+00
  0.00000000E+00  0.00000000E+00  0.00000000E+00
  0.00000000E+00  0.00000000E+00  0.00000000E+00
  0.00000000E+00  0.00000000E+00  0.00000000E+00
  0.00000000E+00  0.00000000E+00  0.00000000E+00
  0.00000000E+00  0.00000000E+00  0.00000000E+00
  0.00000000E+00  0.00000000E+00  0.00000000E+00
  0.00000000E+00  0.00000000E+00  0.00000000E+00
  0.00000000E+00  0.00000000E+00  0.00000000E+00
  0.00000000E+00  0.00000000E+00  0.00000000E+00
  0.00000000E+00  0.00000000E+00  0.00000000E+00
  0.00000000E+00  0.00000000E+00  0.00000000E+00
  0.00000000E+00  0.00000000E+00  0.00000000E+00
  0.00000000E+00  0.00000000E+00  0.00000000E+00
  0.00000000E+00  0.00000000E+00  0.00000000E+00
  0.00000000E+00  0.00000000E+00  0.00000000E+00
  0.00000000E+00  0.00000000E+00  0.00000000E+00
  0.00000000E+00  0.00000000E+00  0.00000000E+00
  0.00000000E+00  0.00000000E+00  0.00000000E+00
  0.00000000E+00  0.00000000E+00  0.00000000E+00
  0.00000000E+00  0.00000000E+00  0.00000000E+00
  0.00000000E+00  0.00000000E+00  0.00000000E+00
  0.00000000E+00  0.00000000E+00  0.00000000E+00
  0.00000000E+00  0.00000000E+00  0.00000000E+00
  0.00000000E+00  0.00000000E+00  0.00000000E+00
  0.00000000E+00  0.00000000E+00  0.00000000E+00
  0.00000000E+00  0.00000000E+00  0.00000000E+00
  0.00000000E+00  0.00000000E+00  0.00000000E+00
  0.00000000E+00  0.00000000E+00  0.00000000E+00
  0.00000000E+00  0.00000000E+00  0.00000000E+00
  0.00000000E+00  0.00000000E+00  0.00000000E+00
  0.00000000E+00  0.00000000E+00  0.00000000E+00
  0.00000000E+00  0.00000000E+00  0.00000000E+00
  0.00000000E+00  0.00000000E+00  0.00000000E+00
  0.00000000E+00  0.00000000E+00  0.00000000E+00
  0.00000000E+00  0.00000000E+00  0.00000000E+00
  0.00000000E+00  0.00000000E+00  0.00000000E+00
  0.00000000E+00  0.00000000E+00  0.00000000E+00
  0.00000000E+00  0.00000000E+00  0.00000000E+00
  0.00000000E+00  0.00000000E+00  0.00000000E+00
  0.00000000E+00  0.00000000E+00  0.00000000E+00
  0.00000000E+00  0.00000000E+00  0.00000000E+00
  0.00000000E+00  0.00000000E+00  0.00000000E+00
  0.00000000E+00  0.00000000E+00  0.00000000E+00
  0.00000000E+00  0.00000000E+00  0.00000000E+00
  0.00000000E+00  0.00000000E+00  0.00000000E+00
  0.00000000E+00  0.00000000E+00  0.00000000E+00
  0.00000000E+00  0.00000000E+00  0.00000000E+00
  0.00000000E+00  0.00000000E+00  0.00000000E+00
  0.00000000E+00  0.00000000E+00  0.00000000E+00
  0.00000000E+00  0.00000000E+00  0.00000000E+00
  0.00000000E+00  0.00000000E+00  0.00000000E+00
  0.00000000E+00  0.00000000E+00  0.00000000E+00
  0.00000000E+00  0.00000000E+00  0.00000000E+00
  0.00000000E+00  0.00000000E+00  0.00000000E+00
  0.00000000E+00  0.00000000E+00  0.00000000E+00
  0.00000000E+00  0.00000000E+00  0.00000000E+00
  0.00000000E+00  0.00000000E+00  0.00000000E+00
  0.00000000E+00  0.00000000E+00  0.00000000E+00
  0.00000000E+00  0.00000000E+00  0.00000000E+00
  0.00000000E+00  0.00000000E+00  0.00000000E+00
  0.00000000E+00  0.00000000E+00  0.00000000E+00
  0.00000000E+00  0.00000000E+00  0.00000000E+00
  0.00000000E+00  0.00000000E+00  0.00000000E+00
  0.00000000E+00  0.00000000E+00  0.00000000E+00
  0.00000000E+00  0.00000000E+00  0.00000000E+00
  0.00000000E+00  0.00000000E+00  0.00000000E+00
  0.00000000E+00  0.00000000E+00  0.00000000E+00
  0.00000000E+00  0.00000000E+00  0.00000000E+00
  0.00000000E+00  0.00000000E+00  0.00000000E+00
  0.00000000E+00  0.00000000E+00  0.00000000E+00
  0.00000000E+00  0.00000000E+00  0.00000000E+00
  0.00000000E+00  0.00000000E+00  0.00000000E+00
  0.00000000E+00  0.00000000E+00  0.00000000E+00
  0.00000000E+00  0.00000000E+00  0.00000000E+00
  0.00000000E+00  0.00000000E+00  0.00000000E+00
  0.00000000E+00  0.00000000E+00  0.00000000E+00
  0.00000000E+00  0.00000000E+00  0.00000000E+00
  0.00000000E+00  0.00000000E+00  0.00000000E+00
  0.00000000E+00  0.00000000E+00  0.00000000E+00
  0.00000000E+00  0.00000000E+00  0.00000000E+00
  0.00000000E+00  0.00000000E+00  0.00000000E+00
  0.00000000E+00  0.00000000E+00  0.00000000E+00
  0.00000000E+00  0.00000000E+00  0.00000000E+00
  0.00000000E+00  0.00000000E+00  0.00000000E+00
  0.00000000E+00  0.00000000E+00  0.00000000E+00
  0.00000000E+00  0.00000000E+00  0.00000000E+00
  0.00000000E+00  0.00000000E+00  0.00000000E+00
  0.00000000E+00  0.00000000E+00  0.00000000E+00
  0.00000000E+00  0.00000000E+00  0.00000000E+00
  0.00000000E+00  0.00000000E+00  0.00000000E+00
  0.00000000E+00  0.00000000E+00  0.00000000E+00
  0.00000000E+00  0.00000000E+00  0.00000000E+00
  0.00000000E+00  0.00000000E+00  0.00000000E+00
  0.00000000E+00  0.00000000E+00  0.00000000E+00
  0.00000000E+00  0.00000000E+00  0.00000000E+00
  0.00000000E+00  0.00000000E+00  0.00000000E+00
  0.00000000E+00  0.00000000E+00  0.00000000E+00
  0.00000000E+00  0.00000000E+00  0.00000000E+00
  0.00000000E+00  0.00000000E+00  0.00000000E+00
  0.00000000E+00  0.00000000E+00  0.00000000E+00
  0.00000000E+00  0.00000000E+00  0.00000000E+00
  0.00000000E+00  0.00000000E+00  0.00000000E+00
  0.00000000E+00  0.00000000E+00  0.00000000E+00
  0.00000000E+00  0.00000000E+00  0.00000000E+00
  0.00000000E+00  0.00000000E+00  0.00000000E+00
  0.00000000E+00  0.00000000E+00  0.00000000E+00
  0.00000000E+00  0.00000000E+00  0.00000000E+00
  0.00000000E+00  0.00000000E+00  0.00000000E+00
  0.00000000E+00  0.00000000E+00  0.00000000E+00
  0.00000000E+00  0.00000000E+00  0.00000000E+00
  0.00000000E+00  0.00000000E+00  0.00000000E+00
  0.00000000E+00  0.00000000E+00  0.00000000E+00
  0.00000000E+00  0.00000000E+00  0.00000000E+00
  0.00000000E+00  0.00000000E+00  0.00000000E+00
  0.00000000E+00  0.00000000E+00  0.00000000E+00
  0.00000000E+00  0.00000000E+00  0.00000000E+00
  0.00000000E+00  0.00000000E+00  0.00000000E+00
  0.00000000E+00  0.00000000E+00  0.00000000E+00
  0.00000000E+00  0.00000000E+00  0.00000000E+00
  0.00000000E+00  0.00000000E+00  0.00000000E+00
  0.00000000E+00  0.00000000E+00  0.00000000E+00
  0.00000000E+00  0.00000000E+00  0.00000000E+00
  0.00000000E+00  0.00000000E+00  0.00000000E+00
  0.00000000E+00  0.00000000E+00  0.00000000E+00
  0.00000000E+00  0.00000000E+00  0.00000000E+00
  0.00000000E+00  0.00000000E+00  0.00000000E+00
  0.00000000E+00  0.00000000E+00  0.00000000E+00
  0.00000000E+00  0.00000000E+00  0.00000000E+00
  0.00000000E+00  0.00000000E+00  0.00000000E+00
  0.00000000E+00  0.00000000E+00  0.00000000E+00
  0.00000000E+00  0.00000000E+00  0.00000000E+00
  0.00000000E+00  0.00000000E+00  0.00000000E+00
  0.00000000E+00  0.00000000E+00  0.00000000E+00
  0.00000000E+00  0.00000000E+00  0.00000000E+00
  0.00000000E+00  0.00000000E+00  0.00000000E+00
  0.00000000E+00  0.00000000E+00  0.00000000E+00
  0.00000000E+00  0.00000000E+00  0.00000000E+00
  0.00000000E+00  0.00000000E+00  0.00000000E+00
  0.00000000E+00  0.00000000E+00  0.00000000E+00
  0.00000000E+00  0.00000000E+00  0.00000000E+00
  0.00000000E+00  0.00000000E+00  0.00000000E+00
  0.00000000E+00  0.00000000E+00  0.00000000E+00
