Na2 Fe80 Co48 S2                        
   1.00000000000000     
     9.9634609566234982    0.0000000000000000    0.0151289702272597
     3.3293508209599403    9.3783526594987556    0.0293803577450063
     0.0000000000000000    0.0000000000000000   32.5363995943291116
   Na   Fe   Co   S 
     2    80    48     2
Selective dynamics
Direct
  0.4046264285350354  0.9090130753231577  0.8006571510888901   T   T   T
  0.1703259253871132  0.6060889657869248  0.8015127013829796   T   T   T
 -0.0090555426421916  0.0076982557819562  0.7178779212622898   T   T   T
  0.1250000000000000  0.6250000000000000  0.2812500000000000   F   F   F
  0.2500000000000000  0.2500000000000000  0.3437500000000000   F   F   F
  0.3750000000000000  0.8750000000000000  0.4062500000000000   F   F   F
  0.5000000000000000  0.5000000000000000  0.4687500000000000   F   F   F
  0.6250000000000000  0.1250000000000000  0.5312500000000000   F   F   F
  0.7500000000000000  0.7500000000000000  0.5937500000000000   F   F   F
  0.8757145577794190  0.3754827652061654  0.6562239085892615   T   T   T
  0.8750000000000000  0.1250000000000000  0.2812500000000000   F   F   F
  0.0000000000000000  0.7500000000000000  0.3437500000000000   F   F   F
  0.1250000000000000  0.3750000000000000  0.4062500000000000   F   F   F
  0.2500000000000000  0.0000000000000000  0.4687500000000000   F   F   F
  0.3750000000000000  0.6250000000000000  0.5312500000000000   F   F   F
  0.5000000000000000  0.2500000000000000  0.5937500000000000   F   F   F
  0.6244015912844684  0.8735442068076220  0.6566086670856411   T   T   T
  0.7542884652411110  0.4976084059977633  0.7189227162831274   T   T   T
  0.5000000000000000  0.2500000000000000  0.3437500000000000   F   F   F
  0.6250000000000000  0.8750000000000000  0.4062500000000000   F   F   F
  0.7500000000000000  0.5000000000000000  0.4687500000000000   F   F   F
  0.8750000000000000  0.1250000000000000  0.5312500000000000   F   F   F
  0.0000000000000000  0.7500000000000000  0.5937500000000000   F   F   F
  0.1256679939905986  0.3746439112756073  0.6562361312897034   T   T   T
  0.2461016932321595 -0.0002860382005162  0.7200389992183804   T   T   T
  0.3750000000000000  0.6250000000000000  0.2812500000000000   F   F   F
  0.1249059120620544  0.8749059120620544  0.2812029560310236   F   F   F
  0.2499059120620544  0.4999059120620544  0.3437029560310236   F   F   F
  0.3749059120620544  0.1249059120620544  0.4062029560310236   F   F   F
  0.4999059120620544  0.7499059120620544  0.4687029560310236   F   F   F
  0.6249059120620544  0.3749059120620544  0.5312029560310236   F   F   F
  0.7499059120620544  0.9999059120620544  0.5937029560310236   F   F   F
  0.8766113640704989  0.6259225380152942  0.6563908375139640   T   T   T
  0.9987643873984896  0.2549966313558938  0.7187243309975799   T   T   T
  0.2500940879379456  0.0000940879379456  0.3437970439689764   F   F   F
  0.3750940879379456  0.6250940879379456  0.4062970439689764   F   F   F
  0.5000940879379456  0.2500940879379456  0.4687970439689764   F   F   F
  0.6250940879379456  0.8750940879379456  0.5312970439689764   F   F   F
  0.7500940879379456  0.5000940879379456  0.5937970439689764   F   F   F
  0.8738472800014551  0.1253099817753605  0.6557701763564775   T   T   T
  0.0016359384118278  0.7501574408075427  0.7210385384100860   T   T   T
  0.1250940879379456  0.3750940879379456  0.2812970439689764   F   F   F
  0.7500000000000000  0.2500000000000000  0.3437500000000000   F   F   F
  0.8750000000000000  0.8750000000000000  0.4062500000000000   F   F   F
  0.0000000000000000  0.5000000000000000  0.4687500000000000   F   F   F
  0.1250000000000000  0.1250000000000000  0.5312500000000000   F   F   F
  0.2500000000000000  0.7500000000000000  0.5937500000000000   F   F   F
  0.3762747102712226  0.3732736006975746  0.6558418773530365   T   T   T
  0.4964678889233199 -0.0005260651605520  0.7174858103889711   T   T   T
  0.6250000000000000  0.6250000000000000  0.2812500000000000   F   F   F
  0.6250000000000000  0.3750000000000000  0.4062500000000000   F   F   F
  0.7500000000000000  0.0000000000000000  0.4687500000000000   F   F   F
  0.8750000000000000  0.6250000000000000  0.5312500000000000   F   F   F
  0.0000000000000000  0.2500000000000000  0.5937500000000000   F   F   F
  0.1247641793031551  0.8743198978269761  0.6570811251397566   T   T   T
  0.2520388837400583  0.4906027916997446  0.7177374981791289   T   T   T
  0.3750000000000000  0.1250000000000000  0.2812500000000000   F   F   F
  0.5000000000000000  0.7500000000000000  0.3437500000000000   F   F   F
  0.0000000000000000  0.2500000000000000  0.3437500000000000   F   F   F
  0.1250000000000000  0.8750000000000000  0.4062500000000000   F   F   F
  0.2500000000000000  0.5000000000000000  0.4687500000000000   F   F   F
  0.3750000000000000  0.1250000000000000  0.5312500000000000   F   F   F
  0.5000000000000000  0.7500000000000000  0.5937500000000000   F   F   F
  0.6263843261581405  0.3731439189183436  0.6557769414221341   T   T   T
  0.7456966277159068  0.0001915179224511  0.7180688191387549   T   T   T
  0.8750000000000000  0.6250000000000000  0.2812500000000000   F   F   F
  0.8749059120620544  0.1249059120620544  0.4062029560310236   F   F   F
  0.9999059120620544  0.7499059120620544  0.4687029560310236   F   F   F
  0.1249059120620544  0.3749059120620544  0.5312029560310236   F   F   F
  0.2499059120620544  0.9999059120620544  0.5937029560310236   F   F   F
  0.3767744271452518  0.6240021329351997  0.6563443360781396   T   T   T
  0.5011301888817113  0.2484054625985903  0.7186266235663323   T   T   T
  0.6249059120620544  0.8749059120620544  0.2812029560310236   F   F   F
  0.7499059120620544  0.4999059120620544  0.3437029560310236   F   F   F
  0.7500940879379456  0.0000940879379456  0.3437970439689764   F   F   F
  0.8750940879379456  0.6250940879379456  0.4062970439689764   F   F   F
  0.0000940879379456  0.2500940879379456  0.4687970439689764   F   F   F
  0.1250940879379456  0.8750940879379456  0.5312970439689764   F   F   F
  0.2500940879379456  0.5000940879379456  0.5937970439689764   F   F   F
  0.3739807829565916  0.1226268155637118  0.6563842208492304   T   T   T
  0.5082758886663975  0.7482764091421449  0.7205486169767645   T   T   T
  0.6250940879379456  0.3750940879379456  0.2812970439689764   F   F   F
  0.1250000000000000  0.1250000000000000  0.2812500000000000   F   F   F
  0.2500000000000000  0.7500000000000000  0.3437500000000000   F   F   F
  0.3750000000000000  0.3750000000000000  0.4062500000000000   F   F   F
  0.5000000000000000  0.0000000000000000  0.4687500000000000   F   F   F
  0.6250000000000000  0.6250000000000000  0.5312500000000000   F   F   F
  0.7500000000000000  0.2500000000000000  0.5937500000000000   F   F   F
  0.8760881459253782  0.8750570848462266  0.6565161976487073   T   T   T
  0.0024414807775625  0.5027870847393586  0.7157843883731780   T   T   T
  0.6245069445799984  0.1251643518066672  0.4063321759033371   F   F   F
  0.7495069445799984  0.7501643518066672  0.4688321759033371   F   F   F
  0.8745069445799984  0.3751643518066672  0.5313321759033371   F   F   F
  0.9995069445799984  0.0001643518066672  0.5938321759033371   F   F   F
  0.1261272608540298  0.6261970301666113  0.6569466702505152   T   T   T
  0.2519315094084917  0.2450558059422681  0.7157196185534002   T   T   T
  0.3745069445799913  0.8751643518066672  0.2813321759033371   F   F   F
  0.4995069445799984  0.5001643518066672  0.3438321759033371   F   F   F
  0.0004930554200016  0.9998356481933328  0.3436678240966629   F   F   F
  0.1254930554200016  0.6248356481933328  0.4061678240966629   F   F   F
  0.2504930554200016  0.2498356481933328  0.4686678240966629   F   F   F
  0.3754930554200016  0.8748356481933328  0.5311678240966629   F   F   F
  0.5004930554200016  0.4998356481933328  0.5936678240966629   F   F   F
  0.6242903542241403  0.1235963293074245  0.6558257115000574   T   T   T
  0.7536061524343594  0.7493540417808670  0.7154884020585048   T   T   T
  0.8754930554200016  0.3748356481933328  0.2811678240966629   F   F   F
  0.6250000000000000  0.1250000000000000  0.2812500000000000   F   F   F
  0.7500000000000000  0.7500000000000000  0.3437500000000000   F   F   F
  0.8750000000000000  0.3750000000000000  0.4062500000000000   F   F   F
  0.0000000000000000  0.0000000000000000  0.4687500000000000   F   F   F
  0.1250000000000000  0.6250000000000000  0.5312500000000000   F   F   F
  0.2500000000000000  0.2500000000000000  0.5937500000000000   F   F   F
  0.3745213195483439  0.8728726769597193  0.6573325514421751   T   T   T
  0.5028878558004635  0.4933704239147954  0.7159122372414418   T   T   T
  0.8745069445799984  0.8751643518066672  0.2813321759033371   F   F   F
  0.9995069445799984  0.5001643518066672  0.3438321759033371   F   F   F
  0.1245069445799984  0.1251643518066672  0.4063321759033371   F   F   F
  0.2495069445799984  0.7501643518066672  0.4688321759033371   F   F   F
  0.3745069445799984  0.3751643518066672  0.5313321759033371   F   F   F
  0.4995069445799984  0.0001643518066672  0.5938321759033371   F   F   F
  0.6257690063790715  0.6235712597307863  0.6563085271710883   T   T   T
  0.7510837529817870  0.2484184257678523  0.7146000748751071   T   T   T
  0.5004930554200016  0.9998356481933328  0.3436678240966629   F   F   F
  0.6254930554200016  0.6248356481933328  0.4061678240966629   F   F   F
  0.7504930554200016  0.2498356481933328  0.4686678240966629   F   F   F
  0.8754930554200016  0.8748356481933328  0.5311678240966629   F   F   F
  0.0004930554200016  0.4998356481933328  0.5936678240966629   F   F   F
  0.1240919375200276  0.1240357563483966  0.6563917490289516   T   T   T
  0.2572953867398097  0.7403000133507383  0.7201500119032759   T   T   T
  0.3754930554200016  0.3748356481933328  0.2811678240966629   F   F   F
  0.4395307126530448  0.6247269729736683  0.7719696932832365   T   T   T
  0.1149475139098739  0.8911877579337375  0.7709980612799870   T   T   T
 
  0.00000000E+00  0.00000000E+00  0.00000000E+00
  0.00000000E+00  0.00000000E+00  0.00000000E+00
  0.00000000E+00  0.00000000E+00  0.00000000E+00
  0.00000000E+00  0.00000000E+00  0.00000000E+00
  0.00000000E+00  0.00000000E+00  0.00000000E+00
  0.00000000E+00  0.00000000E+00  0.00000000E+00
  0.00000000E+00  0.00000000E+00  0.00000000E+00
  0.00000000E+00  0.00000000E+00  0.00000000E+00
  0.00000000E+00  0.00000000E+00  0.00000000E+00
  0.00000000E+00  0.00000000E+00  0.00000000E+00
  0.00000000E+00  0.00000000E+00  0.00000000E+00
  0.00000000E+00  0.00000000E+00  0.00000000E+00
  0.00000000E+00  0.00000000E+00  0.00000000E+00
  0.00000000E+00  0.00000000E+00  0.00000000E+00
  0.00000000E+00  0.00000000E+00  0.00000000E+00
  0.00000000E+00  0.00000000E+00  0.00000000E+00
  0.00000000E+00  0.00000000E+00  0.00000000E+00
  0.00000000E+00  0.00000000E+00  0.00000000E+00
  0.00000000E+00  0.00000000E+00  0.00000000E+00
  0.00000000E+00  0.00000000E+00  0.00000000E+00
  0.00000000E+00  0.00000000E+00  0.00000000E+00
  0.00000000E+00  0.00000000E+00  0.00000000E+00
  0.00000000E+00  0.00000000E+00  0.00000000E+00
  0.00000000E+00  0.00000000E+00  0.00000000E+00
  0.00000000E+00  0.00000000E+00  0.00000000E+00
  0.00000000E+00  0.00000000E+00  0.00000000E+00
  0.00000000E+00  0.00000000E+00  0.00000000E+00
  0.00000000E+00  0.00000000E+00  0.00000000E+00
  0.00000000E+00  0.00000000E+00  0.00000000E+00
  0.00000000E+00  0.00000000E+00  0.00000000E+00
  0.00000000E+00  0.00000000E+00  0.00000000E+00
  0.00000000E+00  0.00000000E+00  0.00000000E+00
  0.00000000E+00  0.00000000E+00  0.00000000E+00
  0.00000000E+00  0.00000000E+00  0.00000000E+00
  0.00000000E+00  0.00000000E+00  0.00000000E+00
  0.00000000E+00  0.00000000E+00  0.00000000E+00
  0.00000000E+00  0.00000000E+00  0.00000000E+00
  0.00000000E+00  0.00000000E+00  0.00000000E+00
  0.00000000E+00  0.00000000E+00  0.00000000E+00
  0.00000000E+00  0.00000000E+00  0.00000000E+00
  0.00000000E+00  0.00000000E+00  0.00000000E+00
  0.00000000E+00  0.00000000E+00  0.00000000E+00
  0.00000000E+00  0.00000000E+00  0.00000000E+00
  0.00000000E+00  0.00000000E+00  0.00000000E+00
  0.00000000E+00  0.00000000E+00  0.00000000E+00
  0.00000000E+00  0.00000000E+00  0.00000000E+00
  0.00000000E+00  0.00000000E+00  0.00000000E+00
  0.00000000E+00  0.00000000E+00  0.00000000E+00
  0.00000000E+00  0.00000000E+00  0.00000000E+00
  0.00000000E+00  0.00000000E+00  0.00000000E+00
  0.00000000E+00  0.00000000E+00  0.00000000E+00
  0.00000000E+00  0.00000000E+00  0.00000000E+00
  0.00000000E+00  0.00000000E+00  0.00000000E+00
  0.00000000E+00  0.00000000E+00  0.00000000E+00
  0.00000000E+00  0.00000000E+00  0.00000000E+00
  0.00000000E+00  0.00000000E+00  0.00000000E+00
  0.00000000E+00  0.00000000E+00  0.00000000E+00
  0.00000000E+00  0.00000000E+00  0.00000000E+00
  0.00000000E+00  0.00000000E+00  0.00000000E+00
  0.00000000E+00  0.00000000E+00  0.00000000E+00
  0.00000000E+00  0.00000000E+00  0.00000000E+00
  0.00000000E+00  0.00000000E+00  0.00000000E+00
  0.00000000E+00  0.00000000E+00  0.00000000E+00
  0.00000000E+00  0.00000000E+00  0.00000000E+00
  0.00000000E+00  0.00000000E+00  0.00000000E+00
  0.00000000E+00  0.00000000E+00  0.00000000E+00
  0.00000000E+00  0.00000000E+00  0.00000000E+00
  0.00000000E+00  0.00000000E+00  0.00000000E+00
  0.00000000E+00  0.00000000E+00  0.00000000E+00
  0.00000000E+00  0.00000000E+00  0.00000000E+00
  0.00000000E+00  0.00000000E+00  0.00000000E+00
  0.00000000E+00  0.00000000E+00  0.00000000E+00
  0.00000000E+00  0.00000000E+00  0.00000000E+00
  0.00000000E+00  0.00000000E+00  0.00000000E+00
  0.00000000E+00  0.00000000E+00  0.00000000E+00
  0.00000000E+00  0.00000000E+00  0.00000000E+00
  0.00000000E+00  0.00000000E+00  0.00000000E+00
  0.00000000E+00  0.00000000E+00  0.00000000E+00
  0.00000000E+00  0.00000000E+00  0.00000000E+00
  0.00000000E+00  0.00000000E+00  0.00000000E+00
  0.00000000E+00  0.00000000E+00  0.00000000E+00
  0.00000000E+00  0.00000000E+00  0.00000000E+00
  0.00000000E+00  0.00000000E+00  0.00000000E+00
  0.00000000E+00  0.00000000E+00  0.00000000E+00
  0.00000000E+00  0.00000000E+00  0.00000000E+00
  0.00000000E+00  0.00000000E+00  0.00000000E+00
  0.00000000E+00  0.00000000E+00  0.00000000E+00
  0.00000000E+00  0.00000000E+00  0.00000000E+00
  0.00000000E+00  0.00000000E+00  0.00000000E+00
  0.00000000E+00  0.00000000E+00  0.00000000E+00
  0.00000000E+00  0.00000000E+00  0.00000000E+00
  0.00000000E+00  0.00000000E+00  0.00000000E+00
  0.00000000E+00  0.00000000E+00  0.00000000E+00
  0.00000000E+00  0.00000000E+00  0.00000000E+00
  0.00000000E+00  0.00000000E+00  0.00000000E+00
  0.00000000E+00  0.00000000E+00  0.00000000E+00
  0.00000000E+00  0.00000000E+00  0.00000000E+00
  0.00000000E+00  0.00000000E+00  0.00000000E+00
  0.00000000E+00  0.00000000E+00  0.00000000E+00
  0.00000000E+00  0.00000000E+00  0.00000000E+00
  0.00000000E+00  0.00000000E+00  0.00000000E+00
  0.00000000E+00  0.00000000E+00  0.00000000E+00
  0.00000000E+00  0.00000000E+00  0.00000000E+00
  0.00000000E+00  0.00000000E+00  0.00000000E+00
  0.00000000E+00  0.00000000E+00  0.00000000E+00
  0.00000000E+00  0.00000000E+00  0.00000000E+00
  0.00000000E+00  0.00000000E+00  0.00000000E+00
  0.00000000E+00  0.00000000E+00  0.00000000E+00
  0.00000000E+00  0.00000000E+00  0.00000000E+00
  0.00000000E+00  0.00000000E+00  0.00000000E+00
  0.00000000E+00  0.00000000E+00  0.00000000E+00
  0.00000000E+00  0.00000000E+00  0.00000000E+00
  0.00000000E+00  0.00000000E+00  0.00000000E+00
  0.00000000E+00  0.00000000E+00  0.00000000E+00
  0.00000000E+00  0.00000000E+00  0.00000000E+00
  0.00000000E+00  0.00000000E+00  0.00000000E+00
  0.00000000E+00  0.00000000E+00  0.00000000E+00
  0.00000000E+00  0.00000000E+00  0.00000000E+00
  0.00000000E+00  0.00000000E+00  0.00000000E+00
  0.00000000E+00  0.00000000E+00  0.00000000E+00
  0.00000000E+00  0.00000000E+00  0.00000000E+00
  0.00000000E+00  0.00000000E+00  0.00000000E+00
  0.00000000E+00  0.00000000E+00  0.00000000E+00
  0.00000000E+00  0.00000000E+00  0.00000000E+00
  0.00000000E+00  0.00000000E+00  0.00000000E+00
  0.00000000E+00  0.00000000E+00  0.00000000E+00
  0.00000000E+00  0.00000000E+00  0.00000000E+00
  0.00000000E+00  0.00000000E+00  0.00000000E+00
  0.00000000E+00  0.00000000E+00  0.00000000E+00
  0.00000000E+00  0.00000000E+00  0.00000000E+00
  0.00000000E+00  0.00000000E+00  0.00000000E+00
  0.00000000E+00  0.00000000E+00  0.00000000E+00
