K12 V48 O119                            
   1.00000000000000     
    11.0554125600000006    0.0000000000000000    0.0000000000000007
    -0.0000000000000007   11.6356429800000001    0.0000000000000007
     0.0000000000000000    0.0000000000000000   18.6053069399999984
   K    V    O 
    12    48   119
Selective dynamics
Direct
  0.0000065745768577  0.5733592319247409  0.2517900654649237   T   T   T
  0.3336846480797926  0.5777747616033486  0.2526207656222731   T   T   T
  0.6659330186342677  0.5781010151675158  0.2522391271602439   T   T   T
  0.0000000000000000  0.4217462399999974  0.7500000000000000   F   F   F
  0.3333333333333357  0.4217462399999974  0.7500000000000000   F   F   F
  0.6666666666666643  0.4217462399999974  0.7500000000000000   F   F   F
  0.1674120573223307  0.0790323523475047  0.2494799753309288   T   T   T
  0.5000000000000000  0.0782537600000026  0.2500000000000000   F   F   F
  0.8329332076743773  0.0773765586118499  0.2468605125864925   T   T   T
  0.8333333333333357  0.9217462399999974  0.7500000000000000   F   F   F
  0.1666666666666643  0.9217462399999974  0.7500000000000000   F   F   F
  0.5000000000000000  0.9217462399999974  0.7500000000000000   F   F   F
  0.0010010825998790  0.9317733644875649  0.4197185574389036   T   T   T
  0.3333333333333357  0.9347524800000002  0.4219866099999976   F   F   F
  0.6666666666666643  0.9347524800000002  0.4219866099999976   F   F   F
  0.9990962131923982  0.0671454053295467  0.5782891947166366   T   T   T
  0.3333333333333357  0.0652475199999998  0.5780133900000024   F   F   F
  0.6666666666666643  0.0652475199999998  0.5780133900000024   F   F   F
  0.0000000000000000  0.9347524800000002  0.0780133900000024   F   F   F
  0.3333333333333357  0.9347524800000002  0.0780133900000024   F   F   F
  0.6666666666666643  0.9347524800000002  0.0780133900000024   F   F   F
  0.0000000000000000  0.0652475199999998  0.9219866099999976   F   F   F
  0.3333333333333357  0.0652475199999998  0.9219866099999976   F   F   F
  0.6666666666666643  0.0652475199999998  0.9219866099999976   F   F   F
  0.1733024497945958  0.4349938194618973  0.4315471808257977   T   T   T
  0.5000000000000000  0.4347524800000002  0.4219866099999976   F   F   F
  0.8260830516903352  0.4334509321917348  0.4322651583053355   T   T   T
  0.8346161031432709  0.5692593177916175  0.5772871565969511   T   T   T
  0.1658629604232310  0.5723719191762713  0.5813995308580302   T   T   T
  0.5000000000000000  0.5652475199999998  0.5780133900000024   F   F   F
  0.8333333333333357  0.4347524800000002  0.0780133900000024   F   F   F
  0.1666666666666643  0.4347524800000002  0.0780133900000024   F   F   F
  0.5000000000000000  0.4347524800000002  0.0780133900000024   F   F   F
  0.8333333333333357  0.5652475199999998  0.9219866099999976   F   F   F
  0.1666666666666643  0.5652475199999998  0.9219866099999976   F   F   F
  0.5000000000000000  0.5652475199999998  0.9219866099999976   F   F   F
  0.9983612019844103  0.2203022522862485  0.4143221052584162   T   T   T
  0.3297809535175732  0.2288323998478845  0.4161988382815404   T   T   T
  0.6649230881408499  0.2298964657437453  0.4223393997629958   T   T   T
  0.9981490408728816  0.7726395566418610  0.5802864940473341   T   T   T
  0.3333333333333357  0.7686988499999998  0.5800612000000029   F   F   F
  0.6666666666666643  0.7686988499999998  0.5800612000000029   F   F   F
  0.0000000000000000  0.2313011500000002  0.0800612000000029   F   F   F
  0.3333333333333357  0.2313011500000002  0.0800612000000029   F   F   F
  0.6666666666666643  0.2313011500000002  0.0800612000000029   F   F   F
  0.0000000000000000  0.7686988499999998  0.9199387999999971   F   F   F
  0.3333333333333357  0.7686988499999998  0.9199387999999971   F   F   F
  0.6666666666666643  0.7686988499999998  0.9199387999999971   F   F   F
  0.1692988841657946  0.7293064594651426  0.4216187811304183   T   T   T
  0.5000000000000000  0.7313011500000002  0.4199387999999971   F   F   F
  0.8315760459920530  0.7301228452395258  0.4205023620371228   T   T   T
  0.8345752208437608  0.2695154172403502  0.5793421495162194   T   T   T
  0.1654013229080104  0.2727007541830834  0.5753402909872426   T   T   T
  0.5000000000000000  0.2686988499999998  0.5800612000000029   F   F   F
  0.8333333333333357  0.7313011500000002  0.0800612000000029   F   F   F
  0.1666666666666643  0.7313011500000002  0.0800612000000029   F   F   F
  0.5000000000000000  0.7313011500000002  0.0800612000000029   F   F   F
  0.8333333333333357  0.2686988499999998  0.9199387999999971   F   F   F
  0.1666666666666643  0.2686988499999998  0.9199387999999971   F   F   F
  0.5000000000000000  0.2686988499999998  0.9199387999999971   F   F   F
  0.9993068873723130  0.0743578911414167  0.4526360909117586   T   T   T
  0.3313234113470192  0.0766218613622092  0.4549066761454242   T   T   T
  0.6678239498224440  0.0812718958242296  0.4550827545841764   T   T   T
  0.0000000000000000  0.9198280399999987  0.5465899900000011   F   F   F
  0.3333333333333357  0.9198280399999987  0.5465899900000011   F   F   F
  0.6666666666666643  0.9198280399999987  0.5465899900000011   F   F   F
  0.0000000000000000  0.0801719600000013  0.0465899900000011   F   F   F
  0.3333333333333357  0.0801719600000013  0.0465899900000011   F   F   F
  0.6666666666666643  0.0801719600000013  0.0465899900000011   F   F   F
  0.0000000000000000  0.9198280399999987  0.9534100099999989   F   F   F
  0.3333333333333357  0.9198280399999987  0.9534100099999989   F   F   F
  0.6666666666666643  0.9198280399999987  0.9534100099999989   F   F   F
  0.1704872960121995  0.5910597967264770  0.4613379556162790   T   T   T
  0.5000000000000000  0.5801719600000013  0.4534100099999989   F   F   F
  0.8287923836510086  0.5911147472699332  0.4574526229757390   T   T   T
  0.8512238549262849  0.4260970188019478  0.5409772054593850   T   T   T
  0.1538079712460303  0.4177312527209890  0.5421586194553069   T   T   T
  0.5000000000000000  0.4198280399999987  0.5465899900000011   F   F   F
  0.1666666666666643  0.5801719600000013  0.0465899900000011   F   F   F
  0.5000000000000000  0.5801719600000013  0.0465899900000011   F   F   F
  0.8333333333333357  0.5801719600000013  0.0465899900000011   F   F   F
  0.8333333333333357  0.4198280399999987  0.9534100099999989   F   F   F
  0.1666666666666643  0.4198280399999987  0.9534100099999989   F   F   F
  0.5000000000000000  0.4198280399999987  0.9534100099999989   F   F   F
  0.0032998142008625  0.2344754547136516  0.5582227599830865   T   T   T
  0.3345004499469552  0.2392741202476973  0.5582346898319660   T   T   T
  0.6614487607383045  0.2413589110681295  0.5579316921020954   T   T   T
  0.0001956989431013  0.7618634687311771  0.4406851051673020   T   T   T
  0.3333333333333357  0.7595458799999975  0.4418101899999982   F   F   F
  0.6666666666666643  0.7595458799999975  0.4418101899999982   F   F   F
  0.0000000000000000  0.2404541200000025  0.9418101899999982   F   F   F
  0.3333333333333357  0.2404541200000025  0.9418101899999982   F   F   F
  0.6666666666666643  0.2404541200000025  0.9418101899999982   F   F   F
  0.0000000000000000  0.7595458799999975  0.0581898100000018   F   F   F
  0.3333333333333357  0.7595458799999975  0.0581898100000018   F   F   F
  0.6666666666666643  0.7595458799999975  0.0581898100000018   F   F   F
  0.8362997054577133  0.7436461357101724  0.5603596860839927   T   T   T
  0.1675374482638184  0.7461544196783974  0.5628336804470466   T   T   T
  0.5000000000000000  0.7404541200000025  0.5581898100000018   F   F   F
  0.8341805492738785  0.2605529926340577  0.4467337910218557   T   T   T
  0.1578076859850451  0.2628631125599580  0.4434893461077236   T   T   T
  0.5000000000000000  0.2595458799999975  0.4418101899999982   F   F   F
  0.8333333333333357  0.7404541200000025  0.9418101899999982   F   F   F
  0.1666666666666643  0.7404541200000025  0.9418101899999982   F   F   F
  0.5000000000000000  0.7404541200000025  0.9418101899999982   F   F   F
  0.8333333333333357  0.2595458799999975  0.0581898100000018   F   F   F
  0.1666666666666643  0.2595458799999975  0.0581898100000018   F   F   F
  0.5000000000000000  0.2595458799999975  0.0581898100000018   F   F   F
  0.9936923312390424  0.1939546151827778  0.3291127246574735   T   T   T
  0.3295830873434415  0.2040085677571681  0.3303975614581968   T   T   T
  0.6686165893891748  0.2080877295262643  0.3371209630810788   T   T   T
  0.0000000000000000  0.7914145800000014  0.6656442000000027   F   F   F
  0.3333333333333357  0.7914145800000014  0.6656442000000027   F   F   F
  0.6666666666666643  0.7914145800000014  0.6656442000000027   F   F   F
  0.0000925164972503  0.2088078705818457  0.1654610060750654   T   T   T
  0.3333333333333357  0.2085854199999986  0.1656442000000027   F   F   F
  0.6666666666666643  0.2085854199999986  0.1656442000000027   F   F   F
  0.0000000000000000  0.7914145800000014  0.8343557999999973   F   F   F
  0.3333333333333357  0.7914145800000014  0.8343557999999973   F   F   F
  0.6666666666666643  0.7914145800000014  0.8343557999999973   F   F   F
  0.8310619506027098  0.7075900978618851  0.3349998756737224   T   T   T
  0.1696901778344156  0.7047293234571236  0.3364227662088350   T   T   T
  0.5000000000000000  0.7085854199999986  0.3343557999999973   F   F   F
  0.8321252729726679  0.2980841351829368  0.6647224163175598   T   T   T
  0.1682296933138492  0.2934352772681444  0.6608640580004747   T   T   T
  0.5000000000000000  0.2914145800000014  0.6656442000000027   F   F   F
  0.8333333333333357  0.7085854199999986  0.1656442000000027   F   F   F
  0.1666666666666643  0.7085854199999986  0.1656442000000027   F   F   F
  0.5000000000000000  0.7085854199999986  0.1656442000000027   F   F   F
  0.8333333333333357  0.2914145800000014  0.8343557999999973   F   F   F
  0.1666666666666643  0.2914145800000014  0.8343557999999973   F   F   F
  0.5000000000000000  0.2914145800000014  0.8343557999999973   F   F   F
  0.3352283966902417  0.3958175377823160  0.4310245192752698   T   T   T
  0.6642278308599853  0.3949453100510596  0.4324919773114042   T   T   T
  0.9975580197689882  0.6091249218545687  0.5665934788538836   T   T   T
  0.3375525194778263  0.6040178932450456  0.5668800321249917   T   T   T
  0.6665625255062818  0.5993937416126958  0.5653279847648739   T   T   T
  0.0000000000000000  0.3994773000000009  0.0654753499999998   F   F   F
  0.3333333333333357  0.3994773000000009  0.0654753499999998   F   F   F
  0.6666666666666643  0.3994773000000009  0.0654753499999998   F   F   F
  0.0000000000000000  0.6005226999999991  0.9345246500000002   F   F   F
  0.3333333333333357  0.6005226999999991  0.9345246500000002   F   F   F
  0.6666666666666643  0.6005226999999991  0.9345246500000002   F   F   F
  0.8333333333333357  0.8994773000000009  0.4345246500000002   F   F   F
  0.1666666666666643  0.8994773000000009  0.4345246500000002   F   F   F
  0.5000000000000000  0.8994773000000009  0.4345246500000002   F   F   F
  0.8345993985509685  0.1000979366112928  0.5662899080042658   T   T   T
  0.1681443796293810  0.1018493707801960  0.5658052782510034   T   T   T
  0.5000000000000000  0.1005226999999991  0.5654753499999998   F   F   F
  0.8333333333333357  0.8994773000000009  0.0654753499999998   F   F   F
  0.1666666666666643  0.8994773000000009  0.0654753499999998   F   F   F
  0.5000000000000000  0.8994773000000009  0.0654753499999998   F   F   F
  0.8333333333333357  0.1005226999999991  0.9345246500000002   F   F   F
  0.1666666666666643  0.1005226999999991  0.9345246500000002   F   F   F
  0.5000000000000000  0.1005226999999991  0.9345246500000002   F   F   F
  0.9997963981462692  0.9486517789353026  0.3335665611267933   T   T   T
  0.3333333333333357  0.9530042000000023  0.3358289499999998   F   F   F
  0.6666666666666643  0.9530042000000023  0.3358289499999998   F   F   F
  0.0000000000000000  0.0469957999999977  0.6641710500000002   F   F   F
  0.3333333333333357  0.0469957999999977  0.6641710500000002   F   F   F
  0.6666666666666643  0.0469957999999977  0.6641710500000002   F   F   F
  0.0000000000000000  0.9530042000000023  0.1641710500000002   F   F   F
  0.3333333333333357  0.9530042000000023  0.1641710500000002   F   F   F
  0.6666666666666643  0.9530042000000023  0.1641710500000002   F   F   F
  0.0000000000000000  0.0469957999999977  0.8358289499999998   F   F   F
  0.3333333333333357  0.0469957999999977  0.8358289499999998   F   F   F
  0.6666666666666643  0.0469957999999977  0.8358289499999998   F   F   F
  0.1252263754767480  0.4478446546987997  0.3489253009541055   T   T   T
  0.5000000000000000  0.4530042000000023  0.3358289499999998   F   F   F
  0.8752851524991618  0.4416132242637021  0.3496397005762867   T   T   T
  0.1676279711379273  0.5426906894843768  0.6670623440683570   T   T   T
  0.5000000000000000  0.5469957999999977  0.6641710500000002   F   F   F
  0.8322473907799105  0.5451390526143219  0.6628346606155078   T   T   T
  0.8328120141816533  0.4537618683241937  0.1642095529807331   T   T   T
  0.1673201788352970  0.4536770944800337  0.1641863978032275   T   T   T
  0.5000000000000000  0.4530042000000023  0.1641710500000002   F   F   F
  0.8333333333333357  0.5469957999999977  0.8358289499999998   F   F   F
  0.1666666666666643  0.5469957999999977  0.8358289499999998   F   F   F
  0.5000000000000000  0.5469957999999977  0.8358289499999998   F   F   F
 
  0.00000000E+00  0.00000000E+00  0.00000000E+00
  0.00000000E+00  0.00000000E+00  0.00000000E+00
  0.00000000E+00  0.00000000E+00  0.00000000E+00
  0.00000000E+00  0.00000000E+00  0.00000000E+00
  0.00000000E+00  0.00000000E+00  0.00000000E+00
  0.00000000E+00  0.00000000E+00  0.00000000E+00
  0.00000000E+00  0.00000000E+00  0.00000000E+00
  0.00000000E+00  0.00000000E+00  0.00000000E+00
  0.00000000E+00  0.00000000E+00  0.00000000E+00
  0.00000000E+00  0.00000000E+00  0.00000000E+00
  0.00000000E+00  0.00000000E+00  0.00000000E+00
  0.00000000E+00  0.00000000E+00  0.00000000E+00
  0.00000000E+00  0.00000000E+00  0.00000000E+00
  0.00000000E+00  0.00000000E+00  0.00000000E+00
  0.00000000E+00  0.00000000E+00  0.00000000E+00
  0.00000000E+00  0.00000000E+00  0.00000000E+00
  0.00000000E+00  0.00000000E+00  0.00000000E+00
  0.00000000E+00  0.00000000E+00  0.00000000E+00
  0.00000000E+00  0.00000000E+00  0.00000000E+00
  0.00000000E+00  0.00000000E+00  0.00000000E+00
  0.00000000E+00  0.00000000E+00  0.00000000E+00
  0.00000000E+00  0.00000000E+00  0.00000000E+00
  0.00000000E+00  0.00000000E+00  0.00000000E+00
  0.00000000E+00  0.00000000E+00  0.00000000E+00
  0.00000000E+00  0.00000000E+00  0.00000000E+00
  0.00000000E+00  0.00000000E+00  0.00000000E+00
  0.00000000E+00  0.00000000E+00  0.00000000E+00
  0.00000000E+00  0.00000000E+00  0.00000000E+00
  0.00000000E+00  0.00000000E+00  0.00000000E+00
  0.00000000E+00  0.00000000E+00  0.00000000E+00
  0.00000000E+00  0.00000000E+00  0.00000000E+00
  0.00000000E+00  0.00000000E+00  0.00000000E+00
  0.00000000E+00  0.00000000E+00  0.00000000E+00
  0.00000000E+00  0.00000000E+00  0.00000000E+00
  0.00000000E+00  0.00000000E+00  0.00000000E+00
  0.00000000E+00  0.00000000E+00  0.00000000E+00
  0.00000000E+00  0.00000000E+00  0.00000000E+00
  0.00000000E+00  0.00000000E+00  0.00000000E+00
  0.00000000E+00  0.00000000E+00  0.00000000E+00
  0.00000000E+00  0.00000000E+00  0.00000000E+00
  0.00000000E+00  0.00000000E+00  0.00000000E+00
  0.00000000E+00  0.00000000E+00  0.00000000E+00
  0.00000000E+00  0.00000000E+00  0.00000000E+00
  0.00000000E+00  0.00000000E+00  0.00000000E+00
  0.00000000E+00  0.00000000E+00  0.00000000E+00
  0.00000000E+00  0.00000000E+00  0.00000000E+00
  0.00000000E+00  0.00000000E+00  0.00000000E+00
  0.00000000E+00  0.00000000E+00  0.00000000E+00
  0.00000000E+00  0.00000000E+00  0.00000000E+00
  0.00000000E+00  0.00000000E+00  0.00000000E+00
  0.00000000E+00  0.00000000E+00  0.00000000E+00
  0.00000000E+00  0.00000000E+00  0.00000000E+00
  0.00000000E+00  0.00000000E+00  0.00000000E+00
  0.00000000E+00  0.00000000E+00  0.00000000E+00
  0.00000000E+00  0.00000000E+00  0.00000000E+00
  0.00000000E+00  0.00000000E+00  0.00000000E+00
  0.00000000E+00  0.00000000E+00  0.00000000E+00
  0.00000000E+00  0.00000000E+00  0.00000000E+00
  0.00000000E+00  0.00000000E+00  0.00000000E+00
  0.00000000E+00  0.00000000E+00  0.00000000E+00
  0.00000000E+00  0.00000000E+00  0.00000000E+00
  0.00000000E+00  0.00000000E+00  0.00000000E+00
  0.00000000E+00  0.00000000E+00  0.00000000E+00
  0.00000000E+00  0.00000000E+00  0.00000000E+00
  0.00000000E+00  0.00000000E+00  0.00000000E+00
  0.00000000E+00  0.00000000E+00  0.00000000E+00
  0.00000000E+00  0.00000000E+00  0.00000000E+00
  0.00000000E+00  0.00000000E+00  0.00000000E+00
  0.00000000E+00  0.00000000E+00  0.00000000E+00
  0.00000000E+00  0.00000000E+00  0.00000000E+00
  0.00000000E+00  0.00000000E+00  0.00000000E+00
  0.00000000E+00  0.00000000E+00  0.00000000E+00
  0.00000000E+00  0.00000000E+00  0.00000000E+00
  0.00000000E+00  0.00000000E+00  0.00000000E+00
  0.00000000E+00  0.00000000E+00  0.00000000E+00
  0.00000000E+00  0.00000000E+00  0.00000000E+00
  0.00000000E+00  0.00000000E+00  0.00000000E+00
  0.00000000E+00  0.00000000E+00  0.00000000E+00
  0.00000000E+00  0.00000000E+00  0.00000000E+00
  0.00000000E+00  0.00000000E+00  0.00000000E+00
  0.00000000E+00  0.00000000E+00  0.00000000E+00
  0.00000000E+00  0.00000000E+00  0.00000000E+00
  0.00000000E+00  0.00000000E+00  0.00000000E+00
  0.00000000E+00  0.00000000E+00  0.00000000E+00
  0.00000000E+00  0.00000000E+00  0.00000000E+00
  0.00000000E+00  0.00000000E+00  0.00000000E+00
  0.00000000E+00  0.00000000E+00  0.00000000E+00
  0.00000000E+00  0.00000000E+00  0.00000000E+00
  0.00000000E+00  0.00000000E+00  0.00000000E+00
  0.00000000E+00  0.00000000E+00  0.00000000E+00
  0.00000000E+00  0.00000000E+00  0.00000000E+00
  0.00000000E+00  0.00000000E+00  0.00000000E+00
  0.00000000E+00  0.00000000E+00  0.00000000E+00
  0.00000000E+00  0.00000000E+00  0.00000000E+00
  0.00000000E+00  0.00000000E+00  0.00000000E+00
  0.00000000E+00  0.00000000E+00  0.00000000E+00
  0.00000000E+00  0.00000000E+00  0.00000000E+00
  0.00000000E+00  0.00000000E+00  0.00000000E+00
  0.00000000E+00  0.00000000E+00  0.00000000E+00
  0.00000000E+00  0.00000000E+00  0.00000000E+00
  0.00000000E+00  0.00000000E+00  0.00000000E+00
  0.00000000E+00  0.00000000E+00  0.00000000E+00
  0.00000000E+00  0.00000000E+00  0.00000000E+00
  0.00000000E+00  0.00000000E+00  0.00000000E+00
  0.00000000E+00  0.00000000E+00  0.00000000E+00
  0.00000000E+00  0.00000000E+00  0.00000000E+00
  0.00000000E+00  0.00000000E+00  0.00000000E+00
  0.00000000E+00  0.00000000E+00  0.00000000E+00
  0.00000000E+00  0.00000000E+00  0.00000000E+00
  0.00000000E+00  0.00000000E+00  0.00000000E+00
  0.00000000E+00  0.00000000E+00  0.00000000E+00
  0.00000000E+00  0.00000000E+00  0.00000000E+00
  0.00000000E+00  0.00000000E+00  0.00000000E+00
  0.00000000E+00  0.00000000E+00  0.00000000E+00
  0.00000000E+00  0.00000000E+00  0.00000000E+00
  0.00000000E+00  0.00000000E+00  0.00000000E+00
  0.00000000E+00  0.00000000E+00  0.00000000E+00
  0.00000000E+00  0.00000000E+00  0.00000000E+00
  0.00000000E+00  0.00000000E+00  0.00000000E+00
  0.00000000E+00  0.00000000E+00  0.00000000E+00
  0.00000000E+00  0.00000000E+00  0.00000000E+00
  0.00000000E+00  0.00000000E+00  0.00000000E+00
  0.00000000E+00  0.00000000E+00  0.00000000E+00
  0.00000000E+00  0.00000000E+00  0.00000000E+00
  0.00000000E+00  0.00000000E+00  0.00000000E+00
  0.00000000E+00  0.00000000E+00  0.00000000E+00
  0.00000000E+00  0.00000000E+00  0.00000000E+00
  0.00000000E+00  0.00000000E+00  0.00000000E+00
  0.00000000E+00  0.00000000E+00  0.00000000E+00
  0.00000000E+00  0.00000000E+00  0.00000000E+00
  0.00000000E+00  0.00000000E+00  0.00000000E+00
  0.00000000E+00  0.00000000E+00  0.00000000E+00
  0.00000000E+00  0.00000000E+00  0.00000000E+00
  0.00000000E+00  0.00000000E+00  0.00000000E+00
  0.00000000E+00  0.00000000E+00  0.00000000E+00
  0.00000000E+00  0.00000000E+00  0.00000000E+00
  0.00000000E+00  0.00000000E+00  0.00000000E+00
  0.00000000E+00  0.00000000E+00  0.00000000E+00
  0.00000000E+00  0.00000000E+00  0.00000000E+00
  0.00000000E+00  0.00000000E+00  0.00000000E+00
  0.00000000E+00  0.00000000E+00  0.00000000E+00
  0.00000000E+00  0.00000000E+00  0.00000000E+00
  0.00000000E+00  0.00000000E+00  0.00000000E+00
  0.00000000E+00  0.00000000E+00  0.00000000E+00
  0.00000000E+00  0.00000000E+00  0.00000000E+00
  0.00000000E+00  0.00000000E+00  0.00000000E+00
  0.00000000E+00  0.00000000E+00  0.00000000E+00
  0.00000000E+00  0.00000000E+00  0.00000000E+00
  0.00000000E+00  0.00000000E+00  0.00000000E+00
  0.00000000E+00  0.00000000E+00  0.00000000E+00
  0.00000000E+00  0.00000000E+00  0.00000000E+00
  0.00000000E+00  0.00000000E+00  0.00000000E+00
  0.00000000E+00  0.00000000E+00  0.00000000E+00
  0.00000000E+00  0.00000000E+00  0.00000000E+00
  0.00000000E+00  0.00000000E+00  0.00000000E+00
  0.00000000E+00  0.00000000E+00  0.00000000E+00
  0.00000000E+00  0.00000000E+00  0.00000000E+00
  0.00000000E+00  0.00000000E+00  0.00000000E+00
  0.00000000E+00  0.00000000E+00  0.00000000E+00
  0.00000000E+00  0.00000000E+00  0.00000000E+00
  0.00000000E+00  0.00000000E+00  0.00000000E+00
  0.00000000E+00  0.00000000E+00  0.00000000E+00
  0.00000000E+00  0.00000000E+00  0.00000000E+00
  0.00000000E+00  0.00000000E+00  0.00000000E+00
  0.00000000E+00  0.00000000E+00  0.00000000E+00
  0.00000000E+00  0.00000000E+00  0.00000000E+00
  0.00000000E+00  0.00000000E+00  0.00000000E+00
  0.00000000E+00  0.00000000E+00  0.00000000E+00
  0.00000000E+00  0.00000000E+00  0.00000000E+00
  0.00000000E+00  0.00000000E+00  0.00000000E+00
  0.00000000E+00  0.00000000E+00  0.00000000E+00
  0.00000000E+00  0.00000000E+00  0.00000000E+00
  0.00000000E+00  0.00000000E+00  0.00000000E+00
  0.00000000E+00  0.00000000E+00  0.00000000E+00
  0.00000000E+00  0.00000000E+00  0.00000000E+00
  0.00000000E+00  0.00000000E+00  0.00000000E+00
  0.00000000E+00  0.00000000E+00  0.00000000E+00
  0.00000000E+00  0.00000000E+00  0.00000000E+00
  0.00000000E+00  0.00000000E+00  0.00000000E+00
