Na2 Fe72 S8                             
    1.000000000000000     
     8.5891064999999998    0.0000000000000000    0.0000000000000005
    -0.0000000000000005    8.0978872673112718    0.0000000000000005
     0.0000000000000000    0.0000000000000000   24.2936618019338120
   Na   Fe   S 
     2    72     8
Selective dynamics
Direct
  0.8599577576761169  0.3567653602905359  0.8914786607964299   T   T   T
  0.2365132108772020  0.9453399404318342  0.9030253972797068   T   T   T
  0.0000000000000000  0.2500000000000000  0.2916666666666643   F   F   F
  0.0000000000000000  0.7500000000000000  0.2916666666666643   F   F   F
  0.3333333333333357  0.2500000000000000  0.2916666666666643   F   F   F
  0.3333333333333357  0.7500000000000000  0.2916666666666643   F   F   F
  0.6666666666666643  0.2500000000000000  0.2916666666666643   F   F   F
  0.6666666666666643  0.7500000000000000  0.2916666666666643   F   F   F
  0.0000000000000000  0.0000000000000000  0.3750000000000000   F   F   F
  0.0000000000000000  0.5000000000000000  0.3750000000000000   F   F   F
  0.3333333333333357  0.0000000000000000  0.3750000000000000   F   F   F
  0.3333333333333357  0.5000000000000000  0.3750000000000000   F   F   F
  0.6666666666666643  0.0000000000000000  0.3750000000000000   F   F   F
  0.6666666666666643  0.5000000000000000  0.3750000000000000   F   F   F
  0.1666666666666643  0.2500000000000000  0.3750000000000000   F   F   F
  0.1666666666666643  0.7500000000000000  0.3750000000000000   F   F   F
  0.5000000000000000  0.2500000000000000  0.3750000000000000   F   F   F
  0.5000000000000000  0.7500000000000000  0.3750000000000000   F   F   F
  0.8333333333333357  0.2500000000000000  0.3750000000000000   F   F   F
  0.8333333333333357  0.7500000000000000  0.3750000000000000   F   F   F
  0.1666666666666643  0.0000000000000000  0.2916666666666643   F   F   F
  0.1666666666666643  0.5000000000000000  0.2916666666666643   F   F   F
  0.5000000000000000  0.0000000000000000  0.2916666666666643   F   F   F
  0.5000000000000000  0.5000000000000000  0.2916666666666643   F   F   F
  0.8333333333333357  0.0000000000000000  0.2916666666666643   F   F   F
  0.8333333333333357  0.5000000000000000  0.2916666666666643   F   F   F
  0.0000000000000000  0.2500000000000000  0.4583333333333357   F   F   F
  0.0000000000000000  0.7500000000000000  0.4583333333333357   F   F   F
  0.3333333333333357  0.2500000000000000  0.4583333333333357   F   F   F
  0.3333333333333357  0.7500000000000000  0.4583333333333357   F   F   F
  0.6666666666666643  0.2500000000000000  0.4583333333333357   F   F   F
  0.6666666666666643  0.7500000000000000  0.4583333333333357   F   F   F
  0.0000000000000000  0.0000000000000000  0.5416666666666643   F   F   F
  0.0000000000000000  0.5000000000000000  0.5416666666666643   F   F   F
  0.3333333333333357  0.0000000000000000  0.5416666666666643   F   F   F
  0.3333333333333357  0.5000000000000000  0.5416666666666643   F   F   F
  0.6666666666666643  0.0000000000000000  0.5416666666666643   F   F   F
  0.6666666666666643  0.5000000000000000  0.5416666666666643   F   F   F
  0.1666666666666643  0.2500000000000000  0.5416666666666643   F   F   F
  0.1666666666666643  0.7500000000000000  0.5416666666666643   F   F   F
  0.5000000000000000  0.2500000000000000  0.5416666666666643   F   F   F
  0.5000000000000000  0.7500000000000000  0.5416666666666643   F   F   F
  0.8333333333333357  0.2500000000000000  0.5416666666666643   F   F   F
  0.8333333333333357  0.7500000000000000  0.5416666666666643   F   F   F
  0.1666666666666643  0.0000000000000000  0.4583333333333357   F   F   F
  0.1666666666666643  0.5000000000000000  0.4583333333333357   F   F   F
  0.5000000000000000  0.0000000000000000  0.4583333333333357   F   F   F
  0.5000000000000000  0.5000000000000000  0.4583333333333357   F   F   F
  0.8333333333333357  0.0000000000000000  0.4583333333333357   F   F   F
  0.8333333333333357  0.5000000000000000  0.4583333333333357   F   F   F
  0.0000388525742891  0.2498348384923778  0.6264297714550702   T   T   T
  0.0007984438526916  0.7494346214563190  0.6249646587899268   T   T   T
  0.3323389662651074  0.2501020195630007  0.6257372327260085   T   T   T
  0.3329567109142830  0.7502538582867094  0.6248489253364863   T   T   T
  0.6660973963849102  0.2494425748722382  0.6256858820618966   T   T   T
  0.6666886092661274  0.7505074215623972  0.6255863243438475   T   T   T
  0.9962477516328210  0.0038068920229683  0.7142833730061213   T   T   T
  0.0036158703736296  0.4972141230951250  0.7101339992696047   T   T   T
  0.3404131554013643  0.0023624632332575  0.7082173244549043   T   T   T
  0.3315239504902420  0.4999629056995285  0.7071557304783846   T   T   T
  0.6628324273716413  0.9948109027509787  0.7121012268120388   T   T   T
  0.6609607037101359  0.5081268043869678  0.7118934347180036   T   T   T
  0.1768008336957576  0.2506946661683589  0.7108982912372637   T   T   T
  0.1620183657140011  0.7458756721953340  0.7086981096887096   T   T   T
  0.5023030010363360  0.2503840672644083  0.7086712209198306   T   T   T
  0.4880702055795109  0.7491397695264848  0.7082824019099747   T   T   T
  0.8159519687314550  0.2497479595744757  0.7084261978143208   T   T   T
  0.8463815096832138  0.7490719123466041  0.7066874620260089   T   T   T
  0.1657643319449653  0.0001667114019181  0.6262131305207581   T   T   T
  0.1656237485996953  0.4996965092137148  0.6252587327600088   T   T   T
  0.5004183227669577  0.0005446376258908  0.6256435507062539   T   T   T
  0.5003787371755078  0.4996451514478655  0.6255513122246967   T   T   T
  0.8347792434215349  0.0002184206570805  0.6271426293712848   T   T   T
  0.8325603776089262  0.4993851459425141  0.6262027028327292   T   T   T
  0.0270110516973471  0.6650812179672221  0.8893609747529020   T   T   T
  0.1900795067168556  0.9259206495288369  0.7766565253112014   T   T   T
  0.1895476114985307  0.2569592098683462  0.9486036898027288   T   T   T
  0.5482421644212092  0.1833223771804415  0.9011806420706343   T   T   T
  0.6698199766596640  0.7510173760644971  0.7727676664031712   T   T   T
  0.9193737117073832  0.8210275958956964  0.9392997136832743   T   T   T
  0.3946223051836208  0.3566696361090725  0.9275091720025409   T   T   T
  0.9860447242335315  0.2873265562120581  0.7751424853663179   T   T   T
 
  0.00000000E+00  0.00000000E+00  0.00000000E+00
  0.00000000E+00  0.00000000E+00  0.00000000E+00
  0.00000000E+00  0.00000000E+00  0.00000000E+00
  0.00000000E+00  0.00000000E+00  0.00000000E+00
  0.00000000E+00  0.00000000E+00  0.00000000E+00
  0.00000000E+00  0.00000000E+00  0.00000000E+00
  0.00000000E+00  0.00000000E+00  0.00000000E+00
  0.00000000E+00  0.00000000E+00  0.00000000E+00
  0.00000000E+00  0.00000000E+00  0.00000000E+00
  0.00000000E+00  0.00000000E+00  0.00000000E+00
  0.00000000E+00  0.00000000E+00  0.00000000E+00
  0.00000000E+00  0.00000000E+00  0.00000000E+00
  0.00000000E+00  0.00000000E+00  0.00000000E+00
  0.00000000E+00  0.00000000E+00  0.00000000E+00
  0.00000000E+00  0.00000000E+00  0.00000000E+00
  0.00000000E+00  0.00000000E+00  0.00000000E+00
  0.00000000E+00  0.00000000E+00  0.00000000E+00
  0.00000000E+00  0.00000000E+00  0.00000000E+00
  0.00000000E+00  0.00000000E+00  0.00000000E+00
  0.00000000E+00  0.00000000E+00  0.00000000E+00
  0.00000000E+00  0.00000000E+00  0.00000000E+00
  0.00000000E+00  0.00000000E+00  0.00000000E+00
  0.00000000E+00  0.00000000E+00  0.00000000E+00
  0.00000000E+00  0.00000000E+00  0.00000000E+00
  0.00000000E+00  0.00000000E+00  0.00000000E+00
  0.00000000E+00  0.00000000E+00  0.00000000E+00
  0.00000000E+00  0.00000000E+00  0.00000000E+00
  0.00000000E+00  0.00000000E+00  0.00000000E+00
  0.00000000E+00  0.00000000E+00  0.00000000E+00
  0.00000000E+00  0.00000000E+00  0.00000000E+00
  0.00000000E+00  0.00000000E+00  0.00000000E+00
  0.00000000E+00  0.00000000E+00  0.00000000E+00
  0.00000000E+00  0.00000000E+00  0.00000000E+00
  0.00000000E+00  0.00000000E+00  0.00000000E+00
  0.00000000E+00  0.00000000E+00  0.00000000E+00
  0.00000000E+00  0.00000000E+00  0.00000000E+00
  0.00000000E+00  0.00000000E+00  0.00000000E+00
  0.00000000E+00  0.00000000E+00  0.00000000E+00
  0.00000000E+00  0.00000000E+00  0.00000000E+00
  0.00000000E+00  0.00000000E+00  0.00000000E+00
  0.00000000E+00  0.00000000E+00  0.00000000E+00
  0.00000000E+00  0.00000000E+00  0.00000000E+00
  0.00000000E+00  0.00000000E+00  0.00000000E+00
  0.00000000E+00  0.00000000E+00  0.00000000E+00
  0.00000000E+00  0.00000000E+00  0.00000000E+00
  0.00000000E+00  0.00000000E+00  0.00000000E+00
  0.00000000E+00  0.00000000E+00  0.00000000E+00
  0.00000000E+00  0.00000000E+00  0.00000000E+00
  0.00000000E+00  0.00000000E+00  0.00000000E+00
  0.00000000E+00  0.00000000E+00  0.00000000E+00
  0.00000000E+00  0.00000000E+00  0.00000000E+00
  0.00000000E+00  0.00000000E+00  0.00000000E+00
  0.00000000E+00  0.00000000E+00  0.00000000E+00
  0.00000000E+00  0.00000000E+00  0.00000000E+00
  0.00000000E+00  0.00000000E+00  0.00000000E+00
  0.00000000E+00  0.00000000E+00  0.00000000E+00
  0.00000000E+00  0.00000000E+00  0.00000000E+00
  0.00000000E+00  0.00000000E+00  0.00000000E+00
  0.00000000E+00  0.00000000E+00  0.00000000E+00
  0.00000000E+00  0.00000000E+00  0.00000000E+00
  0.00000000E+00  0.00000000E+00  0.00000000E+00
  0.00000000E+00  0.00000000E+00  0.00000000E+00
  0.00000000E+00  0.00000000E+00  0.00000000E+00
  0.00000000E+00  0.00000000E+00  0.00000000E+00
  0.00000000E+00  0.00000000E+00  0.00000000E+00
  0.00000000E+00  0.00000000E+00  0.00000000E+00
  0.00000000E+00  0.00000000E+00  0.00000000E+00
  0.00000000E+00  0.00000000E+00  0.00000000E+00
  0.00000000E+00  0.00000000E+00  0.00000000E+00
  0.00000000E+00  0.00000000E+00  0.00000000E+00
  0.00000000E+00  0.00000000E+00  0.00000000E+00
  0.00000000E+00  0.00000000E+00  0.00000000E+00
  0.00000000E+00  0.00000000E+00  0.00000000E+00
  0.00000000E+00  0.00000000E+00  0.00000000E+00
  0.00000000E+00  0.00000000E+00  0.00000000E+00
  0.00000000E+00  0.00000000E+00  0.00000000E+00
  0.00000000E+00  0.00000000E+00  0.00000000E+00
  0.00000000E+00  0.00000000E+00  0.00000000E+00
  0.00000000E+00  0.00000000E+00  0.00000000E+00
  0.00000000E+00  0.00000000E+00  0.00000000E+00
  0.00000000E+00  0.00000000E+00  0.00000000E+00
  0.00000000E+00  0.00000000E+00  0.00000000E+00
