Na2 Co96 S8                             
   1.00000000000000     
    10.0571076808180369    0.0000000000000000    0.0000000000000006
     2.5142769202045105    8.9261415523968921   -2.3880814800645740
     0.0000000000000000    0.0000000000000000   29.8195858510089984
   Na   Co   S 
     2    96     8
Selective dynamics
Direct
  0.7929560205289156  0.5138217701603789  0.8561648833410417   T   T   T
  0.1140028193644312  0.5588268543720436  0.8552530273105939   T   T   T
  0.1319444444444429  0.4722222222222214  0.3388888888888886   F   F   F
  0.1319444444444429  0.9722222222222214  0.3388888888888886   F   F   F
  0.3819444444444429  0.4722222222222214  0.3388888888888886   F   F   F
  0.3819444444444429  0.9722222222222214  0.3388888888888886   F   F   F
  0.6319444444444429  0.4722222222222214  0.3388888888888886   F   F   F
  0.6319444444444429  0.9722222222222214  0.3388888888888886   F   F   F
  0.8819444444444429  0.4722222222222214  0.3388888888888886   F   F   F
  0.8819444444444429  0.9722222222222214  0.3388888888888886   F   F   F
  0.2152777777777786  0.1388888888888928  0.4055555555555586   F   F   F
  0.2152777777777786  0.6388888888888857  0.4055555555555586   F   F   F
  0.4652777777777786  0.1388888888888928  0.4055555555555586   F   F   F
  0.4652777777777786  0.6388888888888857  0.4055555555555586   F   F   F
  0.7152777777777786  0.1388888888888928  0.4055555555555586   F   F   F
  0.7152777777777786  0.6388888888888857  0.4055555555555586   F   F   F
  0.9652777777777786  0.1388888888888928  0.4055555555555586   F   F   F
  0.9652777777777786  0.6388888888888857  0.4055555555555586   F   F   F
  0.0486111111111143  0.3055555555555571  0.4722222222222214   F   F   F
  0.0486111111111143  0.8055555555555571  0.4722222222222214   F   F   F
  0.2986111111111143  0.3055555555555571  0.4722222222222214   F   F   F
  0.2986111111111143  0.8055555555555571  0.4722222222222214   F   F   F
  0.5486111111111143  0.3055555555555571  0.4722222222222214   F   F   F
  0.5486111111111143  0.8055555555555571  0.4722222222222214   F   F   F
  0.7986111111111143  0.3055555555555571  0.4722222222222214   F   F   F
  0.7986111111111143  0.8055555555555571  0.4722222222222214   F   F   F
  0.0347222222222214  0.3611111111111143  0.3944444444444457   F   F   F
  0.0347222222222214  0.8611111111111143  0.3944444444444457   F   F   F
  0.2847222222222214  0.3611111111111143  0.3944444444444457   F   F   F
  0.2847222222222214  0.8611111111111143  0.3944444444444457   F   F   F
  0.5347222222222214  0.3611111111111143  0.3944444444444457   F   F   F
  0.5347222222222214  0.8611111111111143  0.3944444444444457   F   F   F
  0.7847222222222214  0.3611111111111143  0.3944444444444457   F   F   F
  0.7847222222222214  0.8611111111111143  0.3944444444444457   F   F   F
  0.1180555555555571  0.0277777777777786  0.4611111111111086   F   F   F
  0.1180555555555571  0.5277777777777786  0.4611111111111086   F   F   F
  0.3680555555555571  0.0277777777777786  0.4611111111111086   F   F   F
  0.3680555555555571  0.5277777777777786  0.4611111111111086   F   F   F
  0.6180555555555571  0.0277777777777786  0.4611111111111086   F   F   F
  0.6180555555555571  0.5277777777777786  0.4611111111111086   F   F   F
  0.8680555555555571  0.0277777777777786  0.4611111111111086   F   F   F
  0.8680555555555571  0.5277777777777786  0.4611111111111086   F   F   F
  0.2013888888888857  0.1944444444444429  0.3277777777777757   F   F   F
  0.2013888888888857  0.6944444444444429  0.3277777777777757   F   F   F
  0.4513888888888857  0.1944444444444429  0.3277777777777757   F   F   F
  0.4513888888888857  0.6944444444444429  0.3277777777777757   F   F   F
  0.7013888888888857  0.1944444444444429  0.3277777777777757   F   F   F
  0.7013888888888857  0.6944444444444429  0.3277777777777757   F   F   F
  0.9513888888888857  0.1944444444444429  0.3277777777777757   F   F   F
  0.9513888888888857  0.6944444444444429  0.3277777777777757   F   F   F
  0.1319444444444429  0.4722222222222214  0.5388888888888914   F   F   F
  0.1319444444444429  0.9722222222222214  0.5388888888888914   F   F   F
  0.3819444444444429  0.4722222222222214  0.5388888888888914   F   F   F
  0.3819444444444429  0.9722222222222214  0.5388888888888914   F   F   F
  0.6319444444444429  0.4722222222222214  0.5388888888888914   F   F   F
  0.6319444444444429  0.9722222222222214  0.5388888888888914   F   F   F
  0.8819444444444429  0.4722222222222214  0.5388888888888914   F   F   F
  0.8819444444444429  0.9722222222222214  0.5388888888888914   F   F   F
  0.2144535564840343  0.1399737183261009  0.6054402162306882   T   T   T
  0.2150003976124402  0.6400128207696273  0.6052765688351505   T   T   T
  0.4641972743010125  0.1436671106631646  0.6056301155506207   T   T   T
  0.4663715984107333  0.6377698987852921  0.6053840159122533   T   T   T
  0.7141419045636843  0.1402357682761990  0.6049797519044289   T   T   T
  0.7156289442677914  0.6381358100193044  0.6054275244831636   T   T   T
  0.9629336446956337  0.1408793095481432  0.6061896357492170   T   T   T
  0.9665767058681327  0.6391282215393203  0.6054617789854716   T   T   T
  0.0554952462298479  0.3042309180907150  0.6722344787420038   T   T   T
  0.0555667682809260  0.8042889819566303  0.6706001531963037   T   T   T
  0.3015013554014174  0.3101972868682237  0.6699960115602035   T   T   T
  0.2989122293698798  0.8047537282565346  0.6691642859080312   T   T   T
  0.5455291936295121  0.3073481651388777  0.6690667694529682   T   T   T
  0.5459906106455535  0.8015311023804458  0.6697439412236390   T   T   T
  0.7946534307775519  0.3040657132567233  0.6704640523786047   T   T   T
  0.7962250440339327  0.8169809564111969  0.6713125681918714   T   T   T
  0.0347222222222214  0.3611111111111143  0.5944444444444414   F   F   F
  0.0347222222222214  0.8611111111111143  0.5944444444444414   F   F   F
  0.2847222222222214  0.3611111111111143  0.5944444444444414   F   F   F
  0.2847222222222214  0.8611111111111143  0.5944444444444414   F   F   F
  0.5347222222222214  0.3611111111111143  0.5944444444444414   F   F   F
  0.5347222222222214  0.8611111111111143  0.5944444444444414   F   F   F
  0.7847222222222214  0.3611111111111143  0.5944444444444414   F   F   F
  0.7847222222222214  0.8611111111111143  0.5944444444444414   F   F   F
  0.1180065767734575  0.0253046128344745  0.6590039853511033   T   T   T
  0.1190623400501547  0.5295930639917809  0.6598783423171811   T   T   T
  0.3743858026790128  0.0306203394713975  0.6618623113881955   T   T   T
  0.3694285444944821  0.5299951590087713  0.6601217233102277   T   T   T
  0.6161844345472184  0.0234593164188163  0.6618764824659401   T   T   T
  0.6167384805383954  0.5300677575883049  0.6610848666760858   T   T   T
  0.8615682496140756  0.0240036108102081  0.6620961073965709   T   T   T
  0.8677120707542797  0.5308576020295012  0.6602679795468235   T   T   T
  0.2013888888888857  0.1944444444444429  0.5277777777777786   F   F   F
  0.2013888888888857  0.6944444444444429  0.5277777777777786   F   F   F
  0.4513888888888857  0.1944444444444429  0.5277777777777786   F   F   F
  0.4513888888888857  0.6944444444444429  0.5277777777777786   F   F   F
  0.7013888888888857  0.1944444444444429  0.5277777777777786   F   F   F
  0.7013888888888857  0.6944444444444429  0.5277777777777786   F   F   F
  0.9513888888888857  0.1944444444444429  0.5277777777777786   F   F   F
  0.9513888888888857  0.6944444444444429  0.5277777777777786   F   F   F
  0.0550427751095577  0.1813182746996508  0.8359966941407492   T   T   T
  0.0403803292439680  0.3797199814690726  0.7452244105182602   T   T   T
  0.8649007480912870  0.7798240793438301  0.8998845676295129   T   T   T
  0.0520271302690426  0.7774818653021095  0.8062157158272616   T   T   T
  0.9361451646168660  0.2385114455362483  0.7860898263204263   T   T   T
  0.0267241674309524  0.3566564365869681  0.8940465740510303   T   T   T
  0.8856489353608247  0.8839717384551294  0.8504672551968770   T   T   T
  0.8109847450353852  0.4938314235816451  0.7246384000328088   T   T   T
 
  0.00000000E+00  0.00000000E+00  0.00000000E+00
  0.00000000E+00  0.00000000E+00  0.00000000E+00
  0.00000000E+00  0.00000000E+00  0.00000000E+00
  0.00000000E+00  0.00000000E+00  0.00000000E+00
  0.00000000E+00  0.00000000E+00  0.00000000E+00
  0.00000000E+00  0.00000000E+00  0.00000000E+00
  0.00000000E+00  0.00000000E+00  0.00000000E+00
  0.00000000E+00  0.00000000E+00  0.00000000E+00
  0.00000000E+00  0.00000000E+00  0.00000000E+00
  0.00000000E+00  0.00000000E+00  0.00000000E+00
  0.00000000E+00  0.00000000E+00  0.00000000E+00
  0.00000000E+00  0.00000000E+00  0.00000000E+00
  0.00000000E+00  0.00000000E+00  0.00000000E+00
  0.00000000E+00  0.00000000E+00  0.00000000E+00
  0.00000000E+00  0.00000000E+00  0.00000000E+00
  0.00000000E+00  0.00000000E+00  0.00000000E+00
  0.00000000E+00  0.00000000E+00  0.00000000E+00
  0.00000000E+00  0.00000000E+00  0.00000000E+00
  0.00000000E+00  0.00000000E+00  0.00000000E+00
  0.00000000E+00  0.00000000E+00  0.00000000E+00
  0.00000000E+00  0.00000000E+00  0.00000000E+00
  0.00000000E+00  0.00000000E+00  0.00000000E+00
  0.00000000E+00  0.00000000E+00  0.00000000E+00
  0.00000000E+00  0.00000000E+00  0.00000000E+00
  0.00000000E+00  0.00000000E+00  0.00000000E+00
  0.00000000E+00  0.00000000E+00  0.00000000E+00
  0.00000000E+00  0.00000000E+00  0.00000000E+00
  0.00000000E+00  0.00000000E+00  0.00000000E+00
  0.00000000E+00  0.00000000E+00  0.00000000E+00
  0.00000000E+00  0.00000000E+00  0.00000000E+00
  0.00000000E+00  0.00000000E+00  0.00000000E+00
  0.00000000E+00  0.00000000E+00  0.00000000E+00
  0.00000000E+00  0.00000000E+00  0.00000000E+00
  0.00000000E+00  0.00000000E+00  0.00000000E+00
  0.00000000E+00  0.00000000E+00  0.00000000E+00
  0.00000000E+00  0.00000000E+00  0.00000000E+00
  0.00000000E+00  0.00000000E+00  0.00000000E+00
  0.00000000E+00  0.00000000E+00  0.00000000E+00
  0.00000000E+00  0.00000000E+00  0.00000000E+00
  0.00000000E+00  0.00000000E+00  0.00000000E+00
  0.00000000E+00  0.00000000E+00  0.00000000E+00
  0.00000000E+00  0.00000000E+00  0.00000000E+00
  0.00000000E+00  0.00000000E+00  0.00000000E+00
  0.00000000E+00  0.00000000E+00  0.00000000E+00
  0.00000000E+00  0.00000000E+00  0.00000000E+00
  0.00000000E+00  0.00000000E+00  0.00000000E+00
  0.00000000E+00  0.00000000E+00  0.00000000E+00
  0.00000000E+00  0.00000000E+00  0.00000000E+00
  0.00000000E+00  0.00000000E+00  0.00000000E+00
  0.00000000E+00  0.00000000E+00  0.00000000E+00
  0.00000000E+00  0.00000000E+00  0.00000000E+00
  0.00000000E+00  0.00000000E+00  0.00000000E+00
  0.00000000E+00  0.00000000E+00  0.00000000E+00
  0.00000000E+00  0.00000000E+00  0.00000000E+00
  0.00000000E+00  0.00000000E+00  0.00000000E+00
  0.00000000E+00  0.00000000E+00  0.00000000E+00
  0.00000000E+00  0.00000000E+00  0.00000000E+00
  0.00000000E+00  0.00000000E+00  0.00000000E+00
  0.00000000E+00  0.00000000E+00  0.00000000E+00
  0.00000000E+00  0.00000000E+00  0.00000000E+00
  0.00000000E+00  0.00000000E+00  0.00000000E+00
  0.00000000E+00  0.00000000E+00  0.00000000E+00
  0.00000000E+00  0.00000000E+00  0.00000000E+00
  0.00000000E+00  0.00000000E+00  0.00000000E+00
  0.00000000E+00  0.00000000E+00  0.00000000E+00
  0.00000000E+00  0.00000000E+00  0.00000000E+00
  0.00000000E+00  0.00000000E+00  0.00000000E+00
  0.00000000E+00  0.00000000E+00  0.00000000E+00
  0.00000000E+00  0.00000000E+00  0.00000000E+00
  0.00000000E+00  0.00000000E+00  0.00000000E+00
  0.00000000E+00  0.00000000E+00  0.00000000E+00
  0.00000000E+00  0.00000000E+00  0.00000000E+00
  0.00000000E+00  0.00000000E+00  0.00000000E+00
  0.00000000E+00  0.00000000E+00  0.00000000E+00
  0.00000000E+00  0.00000000E+00  0.00000000E+00
  0.00000000E+00  0.00000000E+00  0.00000000E+00
  0.00000000E+00  0.00000000E+00  0.00000000E+00
  0.00000000E+00  0.00000000E+00  0.00000000E+00
  0.00000000E+00  0.00000000E+00  0.00000000E+00
  0.00000000E+00  0.00000000E+00  0.00000000E+00
  0.00000000E+00  0.00000000E+00  0.00000000E+00
  0.00000000E+00  0.00000000E+00  0.00000000E+00
  0.00000000E+00  0.00000000E+00  0.00000000E+00
  0.00000000E+00  0.00000000E+00  0.00000000E+00
  0.00000000E+00  0.00000000E+00  0.00000000E+00
  0.00000000E+00  0.00000000E+00  0.00000000E+00
  0.00000000E+00  0.00000000E+00  0.00000000E+00
  0.00000000E+00  0.00000000E+00  0.00000000E+00
  0.00000000E+00  0.00000000E+00  0.00000000E+00
  0.00000000E+00  0.00000000E+00  0.00000000E+00
  0.00000000E+00  0.00000000E+00  0.00000000E+00
  0.00000000E+00  0.00000000E+00  0.00000000E+00
  0.00000000E+00  0.00000000E+00  0.00000000E+00
  0.00000000E+00  0.00000000E+00  0.00000000E+00
  0.00000000E+00  0.00000000E+00  0.00000000E+00
  0.00000000E+00  0.00000000E+00  0.00000000E+00
  0.00000000E+00  0.00000000E+00  0.00000000E+00
  0.00000000E+00  0.00000000E+00  0.00000000E+00
  0.00000000E+00  0.00000000E+00  0.00000000E+00
  0.00000000E+00  0.00000000E+00  0.00000000E+00
  0.00000000E+00  0.00000000E+00  0.00000000E+00
  0.00000000E+00  0.00000000E+00  0.00000000E+00
  0.00000000E+00  0.00000000E+00  0.00000000E+00
  0.00000000E+00  0.00000000E+00  0.00000000E+00
  0.00000000E+00  0.00000000E+00  0.00000000E+00
  0.00000000E+00  0.00000000E+00  0.00000000E+00
