Na2 Fe72 S8                             
    1.000000000000000     
     8.5891064999999998    0.0000000000000000    0.0000000000000005
    -0.0000000000000005    8.0978872673112718    0.0000000000000005
     0.0000000000000000    0.0000000000000000   24.2936618019338120
   Na   Fe   S 
     2    72     8
Selective dynamics
Direct
  0.0576550628950556  0.5766705528343460  0.8762819473440335   T   T   T
  0.3698673876786315  0.3450567411488742  0.9309738332653384   T   T   T
  0.0000000000000000  0.2500000000000000  0.2916666666666643   F   F   F
  0.0000000000000000  0.7500000000000000  0.2916666666666643   F   F   F
  0.3333333333333357  0.2500000000000000  0.2916666666666643   F   F   F
  0.3333333333333357  0.7500000000000000  0.2916666666666643   F   F   F
  0.6666666666666643  0.2500000000000000  0.2916666666666643   F   F   F
  0.6666666666666643  0.7500000000000000  0.2916666666666643   F   F   F
  0.0000000000000000  0.0000000000000000  0.3750000000000000   F   F   F
  0.0000000000000000  0.5000000000000000  0.3750000000000000   F   F   F
  0.3333333333333357  0.0000000000000000  0.3750000000000000   F   F   F
  0.3333333333333357  0.5000000000000000  0.3750000000000000   F   F   F
  0.6666666666666643  0.0000000000000000  0.3750000000000000   F   F   F
  0.6666666666666643  0.5000000000000000  0.3750000000000000   F   F   F
  0.1666666666666643  0.2500000000000000  0.3750000000000000   F   F   F
  0.1666666666666643  0.7500000000000000  0.3750000000000000   F   F   F
  0.5000000000000000  0.2500000000000000  0.3750000000000000   F   F   F
  0.5000000000000000  0.7500000000000000  0.3750000000000000   F   F   F
  0.8333333333333357  0.2500000000000000  0.3750000000000000   F   F   F
  0.8333333333333357  0.7500000000000000  0.3750000000000000   F   F   F
  0.1666666666666643  0.0000000000000000  0.2916666666666643   F   F   F
  0.1666666666666643  0.5000000000000000  0.2916666666666643   F   F   F
  0.5000000000000000  0.0000000000000000  0.2916666666666643   F   F   F
  0.5000000000000000  0.5000000000000000  0.2916666666666643   F   F   F
  0.8333333333333357  0.0000000000000000  0.2916666666666643   F   F   F
  0.8333333333333357  0.5000000000000000  0.2916666666666643   F   F   F
  0.0000000000000000  0.2500000000000000  0.4583333333333357   F   F   F
  0.0000000000000000  0.7500000000000000  0.4583333333333357   F   F   F
  0.3333333333333357  0.2500000000000000  0.4583333333333357   F   F   F
  0.3333333333333357  0.7500000000000000  0.4583333333333357   F   F   F
  0.6666666666666643  0.2500000000000000  0.4583333333333357   F   F   F
  0.6666666666666643  0.7500000000000000  0.4583333333333357   F   F   F
  0.0000000000000000  0.0000000000000000  0.5416666666666643   F   F   F
  0.0000000000000000  0.5000000000000000  0.5416666666666643   F   F   F
  0.3333333333333357  0.0000000000000000  0.5416666666666643   F   F   F
  0.3333333333333357  0.5000000000000000  0.5416666666666643   F   F   F
  0.6666666666666643  0.0000000000000000  0.5416666666666643   F   F   F
  0.6666666666666643  0.5000000000000000  0.5416666666666643   F   F   F
  0.1666666666666643  0.2500000000000000  0.5416666666666643   F   F   F
  0.1666666666666643  0.7500000000000000  0.5416666666666643   F   F   F
  0.5000000000000000  0.2500000000000000  0.5416666666666643   F   F   F
  0.5000000000000000  0.7500000000000000  0.5416666666666643   F   F   F
  0.8333333333333357  0.2500000000000000  0.5416666666666643   F   F   F
  0.8333333333333357  0.7500000000000000  0.5416666666666643   F   F   F
  0.1666666666666643  0.0000000000000000  0.4583333333333357   F   F   F
  0.1666666666666643  0.5000000000000000  0.4583333333333357   F   F   F
  0.5000000000000000  0.0000000000000000  0.4583333333333357   F   F   F
  0.5000000000000000  0.5000000000000000  0.4583333333333357   F   F   F
  0.8333333333333357  0.0000000000000000  0.4583333333333357   F   F   F
  0.8333333333333357  0.5000000000000000  0.4583333333333357   F   F   F
  0.0007047363212782  0.2512054177587280  0.6265196083719227   T   T   T
  0.9999258094913441  0.7507582706068322  0.6262410546690299   T   T   T
  0.3303130082819547  0.2509438868636539  0.6261697010970773   T   T   T
  0.3325071868264526  0.7506192065165290  0.6261584160311030   T   T   T
  0.6655617150858775  0.2512918121198838  0.6239267104483683   T   T   T
  0.6660067974247194  0.7505171976468858  0.6250545616444001   T   T   T
  0.9948162779304232  0.0017014994077045  0.7147569394896190   T   T   T
  0.9953139016557208  0.5067094427291844  0.7155370006717642   T   T   T
  0.3374362952218938  0.0051756939048246  0.7120708905233794   T   T   T
  0.3365402590305397  0.4955754243319134  0.7128262274451367   T   T   T
  0.6634966776735021  0.0012422020379331  0.7072198850989391   T   T   T
  0.6637466189661149  0.5011091825762417  0.7077872829413802   T   T   T
  0.1615924580262770  0.2524476231051402  0.7116900258639087   T   T   T
  0.1779115236110499  0.7522350629700203  0.7087560115170818   T   T   T
  0.5122010885620486  0.2502764146906943  0.7062903874492453   T   T   T
  0.4986405547079654  0.7504020366478489  0.7086370686040839   T   T   T
  0.8213611063642717  0.2511452910889753  0.7065167472785214   T   T   T
  0.8201998849725957  0.7529740171173878  0.7077785232191428   T   T   T
  0.1659791358850263  0.0008372671431611  0.6271426363218995   T   T   T
  0.1660220208929193  0.5011162396044113  0.6273696787830628   T   T   T
  0.4987397446783160  0.0003135323287503  0.6251122047878461   T   T   T
  0.4979898013868500  0.5012601568065401  0.6254709104570447   T   T   T
  0.8335352628384515  0.0003656484966712  0.6253991082420836   T   T   T
  0.8337126970627808  0.5013399196533577  0.6258670997908151   T   T   T
  0.0806716013844712  0.0769646640230579  0.8670397455432204   T   T   T
  0.3525104528505483  0.2385899870423939  0.7750305640461618   T   T   T
  0.2029666580524764  0.6221760070115842  0.9827793876408487   T   T   T
  0.4634573432257445  0.6431542349053464  0.8802364537305852   T   T   T
  0.9761490335244686  0.2723719733411687  0.7760873635647596   T   T   T
  0.0536648965441519  0.2419912824967994  0.9268424348618426   T   T   T
  0.3534993294609808  0.7658087702717782  0.9410645151029653   T   T   T
  0.9964490817833851  0.7543482336525218  0.7753392603093830   T   T   T
 
  0.00000000E+00  0.00000000E+00  0.00000000E+00
  0.00000000E+00  0.00000000E+00  0.00000000E+00
  0.00000000E+00  0.00000000E+00  0.00000000E+00
  0.00000000E+00  0.00000000E+00  0.00000000E+00
  0.00000000E+00  0.00000000E+00  0.00000000E+00
  0.00000000E+00  0.00000000E+00  0.00000000E+00
  0.00000000E+00  0.00000000E+00  0.00000000E+00
  0.00000000E+00  0.00000000E+00  0.00000000E+00
  0.00000000E+00  0.00000000E+00  0.00000000E+00
  0.00000000E+00  0.00000000E+00  0.00000000E+00
  0.00000000E+00  0.00000000E+00  0.00000000E+00
  0.00000000E+00  0.00000000E+00  0.00000000E+00
  0.00000000E+00  0.00000000E+00  0.00000000E+00
  0.00000000E+00  0.00000000E+00  0.00000000E+00
  0.00000000E+00  0.00000000E+00  0.00000000E+00
  0.00000000E+00  0.00000000E+00  0.00000000E+00
  0.00000000E+00  0.00000000E+00  0.00000000E+00
  0.00000000E+00  0.00000000E+00  0.00000000E+00
  0.00000000E+00  0.00000000E+00  0.00000000E+00
  0.00000000E+00  0.00000000E+00  0.00000000E+00
  0.00000000E+00  0.00000000E+00  0.00000000E+00
  0.00000000E+00  0.00000000E+00  0.00000000E+00
  0.00000000E+00  0.00000000E+00  0.00000000E+00
  0.00000000E+00  0.00000000E+00  0.00000000E+00
  0.00000000E+00  0.00000000E+00  0.00000000E+00
  0.00000000E+00  0.00000000E+00  0.00000000E+00
  0.00000000E+00  0.00000000E+00  0.00000000E+00
  0.00000000E+00  0.00000000E+00  0.00000000E+00
  0.00000000E+00  0.00000000E+00  0.00000000E+00
  0.00000000E+00  0.00000000E+00  0.00000000E+00
  0.00000000E+00  0.00000000E+00  0.00000000E+00
  0.00000000E+00  0.00000000E+00  0.00000000E+00
  0.00000000E+00  0.00000000E+00  0.00000000E+00
  0.00000000E+00  0.00000000E+00  0.00000000E+00
  0.00000000E+00  0.00000000E+00  0.00000000E+00
  0.00000000E+00  0.00000000E+00  0.00000000E+00
  0.00000000E+00  0.00000000E+00  0.00000000E+00
  0.00000000E+00  0.00000000E+00  0.00000000E+00
  0.00000000E+00  0.00000000E+00  0.00000000E+00
  0.00000000E+00  0.00000000E+00  0.00000000E+00
  0.00000000E+00  0.00000000E+00  0.00000000E+00
  0.00000000E+00  0.00000000E+00  0.00000000E+00
  0.00000000E+00  0.00000000E+00  0.00000000E+00
  0.00000000E+00  0.00000000E+00  0.00000000E+00
  0.00000000E+00  0.00000000E+00  0.00000000E+00
  0.00000000E+00  0.00000000E+00  0.00000000E+00
  0.00000000E+00  0.00000000E+00  0.00000000E+00
  0.00000000E+00  0.00000000E+00  0.00000000E+00
  0.00000000E+00  0.00000000E+00  0.00000000E+00
  0.00000000E+00  0.00000000E+00  0.00000000E+00
  0.00000000E+00  0.00000000E+00  0.00000000E+00
  0.00000000E+00  0.00000000E+00  0.00000000E+00
  0.00000000E+00  0.00000000E+00  0.00000000E+00
  0.00000000E+00  0.00000000E+00  0.00000000E+00
  0.00000000E+00  0.00000000E+00  0.00000000E+00
  0.00000000E+00  0.00000000E+00  0.00000000E+00
  0.00000000E+00  0.00000000E+00  0.00000000E+00
  0.00000000E+00  0.00000000E+00  0.00000000E+00
  0.00000000E+00  0.00000000E+00  0.00000000E+00
  0.00000000E+00  0.00000000E+00  0.00000000E+00
  0.00000000E+00  0.00000000E+00  0.00000000E+00
  0.00000000E+00  0.00000000E+00  0.00000000E+00
  0.00000000E+00  0.00000000E+00  0.00000000E+00
  0.00000000E+00  0.00000000E+00  0.00000000E+00
  0.00000000E+00  0.00000000E+00  0.00000000E+00
  0.00000000E+00  0.00000000E+00  0.00000000E+00
  0.00000000E+00  0.00000000E+00  0.00000000E+00
  0.00000000E+00  0.00000000E+00  0.00000000E+00
  0.00000000E+00  0.00000000E+00  0.00000000E+00
  0.00000000E+00  0.00000000E+00  0.00000000E+00
  0.00000000E+00  0.00000000E+00  0.00000000E+00
  0.00000000E+00  0.00000000E+00  0.00000000E+00
  0.00000000E+00  0.00000000E+00  0.00000000E+00
  0.00000000E+00  0.00000000E+00  0.00000000E+00
  0.00000000E+00  0.00000000E+00  0.00000000E+00
  0.00000000E+00  0.00000000E+00  0.00000000E+00
  0.00000000E+00  0.00000000E+00  0.00000000E+00
  0.00000000E+00  0.00000000E+00  0.00000000E+00
  0.00000000E+00  0.00000000E+00  0.00000000E+00
  0.00000000E+00  0.00000000E+00  0.00000000E+00
  0.00000000E+00  0.00000000E+00  0.00000000E+00
  0.00000000E+00  0.00000000E+00  0.00000000E+00
