K4 V16 Zn1 O40                          
   1.00000000000000     
     3.7083005069387731    0.0000000000000000    0.0000000000000000
     0.0000000000000000   11.5462029249168001   -0.0101928514575236
     0.0000000000000000   -0.0285962418526190   19.1974906987110430
   Zn   K    V    O 
     1     4    16    40
Direct
 -0.0000000000000000  0.4378090463954197  0.5245832018077285
 -0.0000000000000000  0.5821707825415759  0.2440432550527668
  0.0000000000000000  0.4109991192628349  0.7605450269676345
  0.5000000000000000  0.0749013792123623  0.2516871987834967
  0.5000000000000000  0.9421730552929565  0.7472017746641499
 -0.0000000000000000  0.9291107545138860  0.4240562066519971
 -0.0000000000000000  0.0718051284129265  0.5743846978716728
 -0.0000000000000000  0.9337224592992678  0.0813054244748206
  0.0000000000000000  0.0672954762859728  0.9271952552761187
  0.5000000000000000  0.4285422934525522  0.4000285962261798
  0.5000000000000000  0.5790921589459722  0.6051208841366630
  0.5000000000000000  0.4345444166128017  0.0774122615143448
  0.5000000000000000  0.5654044323616900  0.9268918085495772
 -0.0000000000000000  0.2242267822168034  0.4117129104723084
  0.0000000000000000  0.7752436105174479  0.5830363645893503
 -0.0000000000000000  0.2317339231640763  0.0789809343377935
  0.0000000000000000  0.7722701224763256  0.9224515534450836
  0.5000000000000000  0.7212428845065004  0.4170106358075247
  0.5000000000000000  0.2616362019547719  0.5947455520324062
  0.5000000000000000  0.7316433786454406  0.0835100022715570
  0.5000000000000000  0.2669192800760044  0.9250285847701130
 -0.0000000000000000  0.0750476230358353  0.4537320653808843
 -0.0000000000000000  0.9153302517933594  0.5453943744091738
 -0.0000000000000000  0.0787651699613258  0.0485695050626598
  0.0000000000000000  0.9165129587654731  0.9588846877594158
  0.5000000000000000  0.5735493949977239  0.4439439295764798
  0.5000000000000000  0.4237122304487694  0.5608366299995756
  0.5000000000000000  0.5840421464107123  0.0483205080482883
  0.5000000000000000  0.4230601099899939  0.9588303422937779
  0.0000000000000000  0.2469901533887687  0.5611803799752929
 -0.0000000000000000  0.7519709851972113  0.4394555635985484
 -0.0000000000000000  0.2332231924959019  0.9490672097019699
  0.0000000000000000  0.7596531689125551  0.0637768880062595
  0.5000000000000000  0.7414047190873340  0.5681755797343524
  0.5000000000000000  0.2666065295206302  0.4307944627743909
  0.5000000000000000  0.7431194786766081  0.9422363332147884
  0.5000000000000000  0.2598931898021741  0.0590579346899174
  0.0000000000000000  0.1950873297456088  0.3289058876446065
 -0.0000000000000000  0.8021751107951411  0.6655094381409140
  0.0000000000000000  0.2106498257922634  0.1618176720243222
 -0.0000000000000000  0.7935255295175357  0.8399655794695097
  0.5000000000000000  0.7107216960996389  0.3334049873815818
  0.5000000000000000  0.2771582784421084  0.6787495623421355
  0.5000000000000000  0.7093712600813352  0.1664083522633160
  0.5000000000000000  0.2899226755671933  0.8416739273000444
 -0.0000000000000000  0.4044058679266455  0.4242217128335435
 -0.0000000000000000  0.5977318066307498  0.5746449792026507
 -0.0000000000000000  0.4009667432160784  0.0652898670321978
  0.0000000000000000  0.6071271399771073  0.9382154122992309
  0.5000000000000000  0.8884790657673082  0.4364862726189562
  0.5000000000000000  0.0970521240204144  0.5628059253521366
  0.5000000000000000  0.8997128269564454  0.0684562949574806
  0.5000000000000000  0.0939143445201500  0.9390031283143084
  0.0000000000000000  0.9454161323610100  0.3404737067025254
 -0.0000000000000000  0.0487741341722378  0.6580272704565872
  0.0000000000000000  0.9553560965394127  0.1645241973023644
  0.0000000000000000  0.0469244915738413  0.8437336944407726
  0.5000000000000000  0.4495858634853431  0.3169287501705372
  0.5000000000000000  0.5576489585159242  0.6883923773468181
  0.5000000000000000  0.4545868567815582  0.1607423270804148
  0.5000000000000000  0.5450045195499122  0.8438468200610882
 
  0.00000000E+00  0.00000000E+00  0.00000000E+00
  0.00000000E+00  0.00000000E+00  0.00000000E+00
  0.00000000E+00  0.00000000E+00  0.00000000E+00
  0.00000000E+00  0.00000000E+00  0.00000000E+00
  0.00000000E+00  0.00000000E+00  0.00000000E+00
  0.00000000E+00  0.00000000E+00  0.00000000E+00
  0.00000000E+00  0.00000000E+00  0.00000000E+00
  0.00000000E+00  0.00000000E+00  0.00000000E+00
  0.00000000E+00  0.00000000E+00  0.00000000E+00
  0.00000000E+00  0.00000000E+00  0.00000000E+00
  0.00000000E+00  0.00000000E+00  0.00000000E+00
  0.00000000E+00  0.00000000E+00  0.00000000E+00
  0.00000000E+00  0.00000000E+00  0.00000000E+00
  0.00000000E+00  0.00000000E+00  0.00000000E+00
  0.00000000E+00  0.00000000E+00  0.00000000E+00
  0.00000000E+00  0.00000000E+00  0.00000000E+00
  0.00000000E+00  0.00000000E+00  0.00000000E+00
  0.00000000E+00  0.00000000E+00  0.00000000E+00
  0.00000000E+00  0.00000000E+00  0.00000000E+00
  0.00000000E+00  0.00000000E+00  0.00000000E+00
  0.00000000E+00  0.00000000E+00  0.00000000E+00
  0.00000000E+00  0.00000000E+00  0.00000000E+00
  0.00000000E+00  0.00000000E+00  0.00000000E+00
  0.00000000E+00  0.00000000E+00  0.00000000E+00
  0.00000000E+00  0.00000000E+00  0.00000000E+00
  0.00000000E+00  0.00000000E+00  0.00000000E+00
  0.00000000E+00  0.00000000E+00  0.00000000E+00
  0.00000000E+00  0.00000000E+00  0.00000000E+00
  0.00000000E+00  0.00000000E+00  0.00000000E+00
  0.00000000E+00  0.00000000E+00  0.00000000E+00
  0.00000000E+00  0.00000000E+00  0.00000000E+00
  0.00000000E+00  0.00000000E+00  0.00000000E+00
  0.00000000E+00  0.00000000E+00  0.00000000E+00
  0.00000000E+00  0.00000000E+00  0.00000000E+00
  0.00000000E+00  0.00000000E+00  0.00000000E+00
  0.00000000E+00  0.00000000E+00  0.00000000E+00
  0.00000000E+00  0.00000000E+00  0.00000000E+00
  0.00000000E+00  0.00000000E+00  0.00000000E+00
  0.00000000E+00  0.00000000E+00  0.00000000E+00
  0.00000000E+00  0.00000000E+00  0.00000000E+00
  0.00000000E+00  0.00000000E+00  0.00000000E+00
  0.00000000E+00  0.00000000E+00  0.00000000E+00
  0.00000000E+00  0.00000000E+00  0.00000000E+00
  0.00000000E+00  0.00000000E+00  0.00000000E+00
  0.00000000E+00  0.00000000E+00  0.00000000E+00
  0.00000000E+00  0.00000000E+00  0.00000000E+00
  0.00000000E+00  0.00000000E+00  0.00000000E+00
  0.00000000E+00  0.00000000E+00  0.00000000E+00
  0.00000000E+00  0.00000000E+00  0.00000000E+00
  0.00000000E+00  0.00000000E+00  0.00000000E+00
  0.00000000E+00  0.00000000E+00  0.00000000E+00
  0.00000000E+00  0.00000000E+00  0.00000000E+00
  0.00000000E+00  0.00000000E+00  0.00000000E+00
  0.00000000E+00  0.00000000E+00  0.00000000E+00
  0.00000000E+00  0.00000000E+00  0.00000000E+00
  0.00000000E+00  0.00000000E+00  0.00000000E+00
  0.00000000E+00  0.00000000E+00  0.00000000E+00
  0.00000000E+00  0.00000000E+00  0.00000000E+00
  0.00000000E+00  0.00000000E+00  0.00000000E+00
  0.00000000E+00  0.00000000E+00  0.00000000E+00
  0.00000000E+00  0.00000000E+00  0.00000000E+00
