Na2 Mn48 Co48 S1                        
   1.00000000000000     
     9.9475087679858625    0.0000000000000000   -0.0642715153651900
     4.9334962509818583    8.6928626692229010   -0.1434234665729407
     0.0000000000000000    0.0000000000000000   24.4783711218720370
   Na   Mn   Co   S 
     2    48    48     1
Selective dynamics
Direct
  0.4010652772853053  0.1423919232912830  0.8117661205442930   T   T   T
  0.8187247202202285  0.2081806303385608  0.8121374726845745   T   T   T
  0.1251009893290203  0.3747980213419595  0.3750504946645137   F   F   F
  0.1251009893290203  0.8747980213419595  0.3750504946645137   F   F   F
  0.6251009893290203  0.3747980213419595  0.3750504946645137   F   F   F
  0.6251009893290203  0.8747980213419595  0.3750504946645137   F   F   F
  0.2917676559956845  0.0414646880086238  0.4583838279978423   F   F   F
  0.2917676559956845  0.5414646880086238  0.4583838279978423   F   F   F
  0.7917676559956845  0.0414646880086238  0.4583838279978423   F   F   F
  0.7917676559956845  0.5414646880086238  0.4583838279978423   F   F   F
  0.4584343226623560  0.2081313546752881  0.2917171613311780   F   F   F
  0.4584343226623560  0.7081313546752881  0.2917171613311780   F   F   F
  0.9584343226623560  0.2081313546752881  0.2917171613311780   F   F   F
  0.9584343226623560  0.7081313546752881  0.2917171613311780   F   F   F
  0.3748990106709797  0.1252019786580405  0.3749495053354863   F   F   F
  0.3748990106709797  0.6252019786580405  0.3749495053354863   F   F   F
  0.8748990106709797  0.1252019786580405  0.3749495053354863   F   F   F
  0.8748990106709797  0.6252019786580405  0.3749495053354863   F   F   F
  0.0415656773376440  0.2918686453247119  0.4582828386688220   F   F   F
  0.0415656773376440  0.7918686453247119  0.4582828386688220   F   F   F
  0.5415656773376440  0.2918686453247119  0.4582828386688220   F   F   F
  0.5415656773376440  0.7918686453247119  0.4582828386688220   F   F   F
  0.2082323440043155  0.4585353119913762  0.2916161720021577   F   F   F
  0.2082323440043155  0.9585353119913762  0.2916161720021577   F   F   F
  0.7082323440043155  0.4585353119913762  0.2916161720021577   F   F   F
  0.7082323440043155  0.9585353119913762  0.2916161720021577   F   F   F
  0.1208025189009365  0.3826334837786978  0.6245433116125763   T   T   T
  0.1306209481774886  0.8702422636158259  0.6275443545823453   T   T   T
  0.6252429830359673  0.3775577811370046  0.6258713738347397   T   T   T
  0.6213814324362289  0.8825375130753838  0.6252583695649250   T   T   T
  0.2934942635988835  0.0453611420949625  0.7064479414781382   T   T   T
  0.2893188290565213  0.5498648195921081  0.7039513281344266   T   T   T
  0.7883077316949052  0.0495173005106911  0.7030498620455865   T   T   T
  0.7950426529594862  0.5420875895148685  0.7032050583158286   T   T   T
  0.4584343226623560  0.2081313546752881  0.5417171613311780   F   F   F
  0.4584343226623560  0.7081313546752881  0.5417171613311780   F   F   F
  0.9584343226623560  0.2081313546752881  0.5417171613311780   F   F   F
  0.9584343226623560  0.7081313546752881  0.5417171613311780   F   F   F
  0.3761381339005366  0.1238701692866528  0.6264306013039628   T   T   T
  0.3679341524536822  0.6357177982556363  0.6279283039549396   T   T   T
  0.8757175601310707  0.1268913664928072  0.6270993754809192   T   T   T
  0.8786126663251561  0.6220371630764939  0.6268480790246140   T   T   T
  0.0392779072160712  0.2962251935725508  0.7160635464977307   T   T   T
  0.0461917025694783  0.7928056148491650  0.7037812766524154   T   T   T
  0.5481561392376347  0.2891848374291725  0.7061978892382622   T   T   T
  0.5407994062784032  0.7943218758900215  0.7182320202249523   T   T   T
  0.2082323440043155  0.4585353119913762  0.5416161720021577   F   F   F
  0.2082323440043155  0.9585353119913762  0.5416161720021577   F   F   F
  0.7082323440043155  0.4585353119913762  0.5416161720021577   F   F   F
  0.7082323440043155  0.9585353119913762  0.5416161720021577   F   F   F
  0.4583946692454859  0.4582106615090282  0.2916973346227394   F   F   F
  0.4583946692454859  0.9582106615090282  0.2916973346227394   F   F   F
  0.9583946692454859  0.4582106615090282  0.2916973346227394   F   F   F
  0.9583946692454859  0.9582106615090282  0.2916973346227394   F   F   F
  0.1250613359121502  0.1248773281756925  0.3750306679560751   F   F   F
  0.1250613359121502  0.6248773281756925  0.3750306679560751   F   F   F
  0.6250613359121502  0.1248773281756925  0.3750306679560751   F   F   F
  0.6250613359121502  0.6248773281756925  0.3750306679560751   F   F   F
  0.2917280025788216  0.2915439948423639  0.4583640012894108   F   F   F
  0.2917280025788216  0.7915439948423639  0.4583640012894108   F   F   F
  0.7917280025788216  0.2915439948423639  0.4583640012894108   F   F   F
  0.7917280025788216  0.7915439948423639  0.4583640012894108   F   F   F
  0.3749386640878498  0.3751226718243075  0.3749693320439249   F   F   F
  0.3749386640878498  0.8751226718243075  0.3749693320439249   F   F   F
  0.8749386640878498  0.3751226718243075  0.3749693320439249   F   F   F
  0.8749386640878498  0.8751226718243075  0.3749693320439249   F   F   F
  0.0416053307545141  0.0417893384909718  0.4583026653772535   F   F   F
  0.0416053307545141  0.5417893384909718  0.4583026653772535   F   F   F
  0.5416053307545141  0.0417893384909718  0.4583026653772535   F   F   F
  0.5416053307545141  0.5417893384909718  0.4583026653772535   F   F   F
  0.2082719974211784  0.2084560051576361  0.2916359987105892   F   F   F
  0.2082719974211784  0.7084560051576361  0.2916359987105892   F   F   F
  0.7082719974211784  0.2084560051576361  0.2916359987105892   F   F   F
  0.7082719974211784  0.7084560051576361  0.2916359987105892   F   F   F
  0.4583946692454859  0.4582106615090282  0.5416973346227394   F   F   F
  0.4583946692454859  0.9582106615090282  0.5416973346227394   F   F   F
  0.9583946692454859  0.4582106615090282  0.5416973346227394   F   F   F
  0.9583946692454859  0.9582106615090282  0.5416973346227394   F   F   F
  0.1267017912327499  0.1240878610299107  0.6262260615973431   T   T   T
  0.1283209301739266  0.6285698246239864  0.6251640300054295   T   T   T
  0.6238898302259556  0.1320798408095912  0.6247324474775807   T   T   T
  0.6230058402852593  0.6295734455779070  0.6251586212054492   T   T   T
  0.2932178422397241  0.3018960768748246  0.7047284774905433   T   T   T
  0.2877648510185449  0.7907739152213434  0.7070045080367520   T   T   T
  0.7835574459751456  0.2989751677919594  0.7043796681126308   T   T   T
  0.7966573041497093  0.7978122453346089  0.7072948725355761   T   T   T
  0.3757937795273929  0.3801728692511457  0.6245801222044017   T   T   T
  0.3743331729803291  0.8781277902246517  0.6264100153693348   T   T   T
  0.8764491534909957  0.3774932874456910  0.6259183919766278   T   T   T
  0.8768731719251446  0.8781150809632692  0.6249956339810341   T   T   T
  0.0348201624141211  0.0380069409633303  0.7103937749173630   T   T   T
  0.0390523966283208  0.5470825040012829  0.7073924837369555   T   T   T
  0.5409661469318175  0.0493591815777463  0.7068227119664848   T   T   T
  0.5394002402149732  0.5397238174013639  0.7062480053212552   T   T   T
  0.2082719974211784  0.2084560051576361  0.5416359987105892   F   F   F
  0.2082719974211784  0.7084560051576361  0.5416359987105892   F   F   F
  0.7082719974211784  0.2084560051576361  0.5416359987105892   F   F   F
  0.7082719974211784  0.7084560051576361  0.5416359987105892   F   F   F
  0.1371319993782035  0.1049943235165401  0.7801565818900300   T   T   T
 
  0.00000000E+00  0.00000000E+00  0.00000000E+00
  0.00000000E+00  0.00000000E+00  0.00000000E+00
  0.00000000E+00  0.00000000E+00  0.00000000E+00
  0.00000000E+00  0.00000000E+00  0.00000000E+00
  0.00000000E+00  0.00000000E+00  0.00000000E+00
  0.00000000E+00  0.00000000E+00  0.00000000E+00
  0.00000000E+00  0.00000000E+00  0.00000000E+00
  0.00000000E+00  0.00000000E+00  0.00000000E+00
  0.00000000E+00  0.00000000E+00  0.00000000E+00
  0.00000000E+00  0.00000000E+00  0.00000000E+00
  0.00000000E+00  0.00000000E+00  0.00000000E+00
  0.00000000E+00  0.00000000E+00  0.00000000E+00
  0.00000000E+00  0.00000000E+00  0.00000000E+00
  0.00000000E+00  0.00000000E+00  0.00000000E+00
  0.00000000E+00  0.00000000E+00  0.00000000E+00
  0.00000000E+00  0.00000000E+00  0.00000000E+00
  0.00000000E+00  0.00000000E+00  0.00000000E+00
  0.00000000E+00  0.00000000E+00  0.00000000E+00
  0.00000000E+00  0.00000000E+00  0.00000000E+00
  0.00000000E+00  0.00000000E+00  0.00000000E+00
  0.00000000E+00  0.00000000E+00  0.00000000E+00
  0.00000000E+00  0.00000000E+00  0.00000000E+00
  0.00000000E+00  0.00000000E+00  0.00000000E+00
  0.00000000E+00  0.00000000E+00  0.00000000E+00
  0.00000000E+00  0.00000000E+00  0.00000000E+00
  0.00000000E+00  0.00000000E+00  0.00000000E+00
  0.00000000E+00  0.00000000E+00  0.00000000E+00
  0.00000000E+00  0.00000000E+00  0.00000000E+00
  0.00000000E+00  0.00000000E+00  0.00000000E+00
  0.00000000E+00  0.00000000E+00  0.00000000E+00
  0.00000000E+00  0.00000000E+00  0.00000000E+00
  0.00000000E+00  0.00000000E+00  0.00000000E+00
  0.00000000E+00  0.00000000E+00  0.00000000E+00
  0.00000000E+00  0.00000000E+00  0.00000000E+00
  0.00000000E+00  0.00000000E+00  0.00000000E+00
  0.00000000E+00  0.00000000E+00  0.00000000E+00
  0.00000000E+00  0.00000000E+00  0.00000000E+00
  0.00000000E+00  0.00000000E+00  0.00000000E+00
  0.00000000E+00  0.00000000E+00  0.00000000E+00
  0.00000000E+00  0.00000000E+00  0.00000000E+00
  0.00000000E+00  0.00000000E+00  0.00000000E+00
  0.00000000E+00  0.00000000E+00  0.00000000E+00
  0.00000000E+00  0.00000000E+00  0.00000000E+00
  0.00000000E+00  0.00000000E+00  0.00000000E+00
  0.00000000E+00  0.00000000E+00  0.00000000E+00
  0.00000000E+00  0.00000000E+00  0.00000000E+00
  0.00000000E+00  0.00000000E+00  0.00000000E+00
  0.00000000E+00  0.00000000E+00  0.00000000E+00
  0.00000000E+00  0.00000000E+00  0.00000000E+00
  0.00000000E+00  0.00000000E+00  0.00000000E+00
  0.00000000E+00  0.00000000E+00  0.00000000E+00
  0.00000000E+00  0.00000000E+00  0.00000000E+00
  0.00000000E+00  0.00000000E+00  0.00000000E+00
  0.00000000E+00  0.00000000E+00  0.00000000E+00
  0.00000000E+00  0.00000000E+00  0.00000000E+00
  0.00000000E+00  0.00000000E+00  0.00000000E+00
  0.00000000E+00  0.00000000E+00  0.00000000E+00
  0.00000000E+00  0.00000000E+00  0.00000000E+00
  0.00000000E+00  0.00000000E+00  0.00000000E+00
  0.00000000E+00  0.00000000E+00  0.00000000E+00
  0.00000000E+00  0.00000000E+00  0.00000000E+00
  0.00000000E+00  0.00000000E+00  0.00000000E+00
  0.00000000E+00  0.00000000E+00  0.00000000E+00
  0.00000000E+00  0.00000000E+00  0.00000000E+00
  0.00000000E+00  0.00000000E+00  0.00000000E+00
  0.00000000E+00  0.00000000E+00  0.00000000E+00
  0.00000000E+00  0.00000000E+00  0.00000000E+00
  0.00000000E+00  0.00000000E+00  0.00000000E+00
  0.00000000E+00  0.00000000E+00  0.00000000E+00
  0.00000000E+00  0.00000000E+00  0.00000000E+00
  0.00000000E+00  0.00000000E+00  0.00000000E+00
  0.00000000E+00  0.00000000E+00  0.00000000E+00
  0.00000000E+00  0.00000000E+00  0.00000000E+00
  0.00000000E+00  0.00000000E+00  0.00000000E+00
  0.00000000E+00  0.00000000E+00  0.00000000E+00
  0.00000000E+00  0.00000000E+00  0.00000000E+00
  0.00000000E+00  0.00000000E+00  0.00000000E+00
  0.00000000E+00  0.00000000E+00  0.00000000E+00
  0.00000000E+00  0.00000000E+00  0.00000000E+00
  0.00000000E+00  0.00000000E+00  0.00000000E+00
  0.00000000E+00  0.00000000E+00  0.00000000E+00
  0.00000000E+00  0.00000000E+00  0.00000000E+00
  0.00000000E+00  0.00000000E+00  0.00000000E+00
  0.00000000E+00  0.00000000E+00  0.00000000E+00
  0.00000000E+00  0.00000000E+00  0.00000000E+00
  0.00000000E+00  0.00000000E+00  0.00000000E+00
  0.00000000E+00  0.00000000E+00  0.00000000E+00
  0.00000000E+00  0.00000000E+00  0.00000000E+00
  0.00000000E+00  0.00000000E+00  0.00000000E+00
  0.00000000E+00  0.00000000E+00  0.00000000E+00
  0.00000000E+00  0.00000000E+00  0.00000000E+00
  0.00000000E+00  0.00000000E+00  0.00000000E+00
  0.00000000E+00  0.00000000E+00  0.00000000E+00
  0.00000000E+00  0.00000000E+00  0.00000000E+00
  0.00000000E+00  0.00000000E+00  0.00000000E+00
  0.00000000E+00  0.00000000E+00  0.00000000E+00
  0.00000000E+00  0.00000000E+00  0.00000000E+00
  0.00000000E+00  0.00000000E+00  0.00000000E+00
  0.00000000E+00  0.00000000E+00  0.00000000E+00
