Na2 Zn96 S1                             
   1.00000000000000     
    10.5859316789093487    0.0000000000000000    0.0000000000000006
     2.6464829197273376   10.8723638624740317    4.5838428783309721
     0.0000000000000000    0.0000000000000000   27.5030572699858453
   Na   Zn   S 
     2    96     1
Selective dynamics
Direct
  0.5215365686555079  0.9387682499331085  0.7925651554956070   T   T   T
  0.0096291709697048 -0.0463478862634532  0.7963536527204668   T   T   T
  0.1562500000000000  0.3750000000000000  0.2986111111111143   F   F   F
  0.1562500000000000  0.8750000000000000  0.2986111111111143   F   F   F
  0.4062500000000000  0.3750000000000000  0.2986111111111143   F   F   F
  0.4062500000000000  0.8750000000000000  0.2986111111111143   F   F   F
  0.6562500000000000  0.3750000000000000  0.2986111111111143   F   F   F
  0.6562500000000000  0.8750000000000000  0.2986111111111143   F   F   F
  0.9062500000000000  0.3750000000000000  0.2986111111111143   F   F   F
  0.9062500000000000  0.8750000000000000  0.2986111111111143   F   F   F
  0.0312500000000000  0.3750000000000000  0.3819444444444429   F   F   F
  0.0312500000000000  0.8750000000000000  0.3819444444444429   F   F   F
  0.2812500000000000  0.3750000000000000  0.3819444444444429   F   F   F
  0.2812500000000000  0.8750000000000000  0.3819444444444429   F   F   F
  0.5312500000000000  0.3750000000000000  0.3819444444444429   F   F   F
  0.5312500000000000  0.8750000000000000  0.3819444444444429   F   F   F
  0.7812500000000000  0.3750000000000000  0.3819444444444429   F   F   F
  0.7812500000000000  0.8750000000000000  0.3819444444444429   F   F   F
  0.0937500000000000  0.1250000000000000  0.3680555555555571   F   F   F
  0.0937500000000000  0.6250000000000000  0.3680555555555571   F   F   F
  0.3437500000000000  0.1250000000000000  0.3680555555555571   F   F   F
  0.3437500000000000  0.6250000000000000  0.3680555555555571   F   F   F
  0.5937500000000000  0.1250000000000000  0.3680555555555571   F   F   F
  0.5937500000000000  0.6250000000000000  0.3680555555555571   F   F   F
  0.8437500000000000  0.1250000000000000  0.3680555555555571   F   F   F
  0.8437500000000000  0.6250000000000000  0.3680555555555571   F   F   F
  0.2187500000000000  0.1250000000000000  0.2847222222222214   F   F   F
  0.2187500000000000  0.6250000000000000  0.2847222222222214   F   F   F
  0.4687500000000000  0.1250000000000000  0.2847222222222214   F   F   F
  0.4687500000000000  0.6250000000000000  0.2847222222222214   F   F   F
  0.7187500000000000  0.1250000000000000  0.2847222222222214   F   F   F
  0.7187500000000000  0.6250000000000000  0.2847222222222214   F   F   F
  0.9687500000000000  0.1250000000000000  0.2847222222222214   F   F   F
  0.9687500000000000  0.6250000000000000  0.2847222222222214   F   F   F
  0.1562500000000000  0.3750000000000000  0.4652777777777786   F   F   F
  0.1562500000000000  0.8750000000000000  0.4652777777777786   F   F   F
  0.4062500000000000  0.3750000000000000  0.4652777777777786   F   F   F
  0.4062500000000000  0.8750000000000000  0.4652777777777786   F   F   F
  0.6562500000000000  0.3750000000000000  0.4652777777777786   F   F   F
  0.6562500000000000  0.8750000000000000  0.4652777777777786   F   F   F
  0.9062500000000000  0.3750000000000000  0.4652777777777786   F   F   F
  0.9062500000000000  0.8750000000000000  0.4652777777777786   F   F   F
  0.0312500000000000  0.3750000000000000  0.5486111111111143   F   F   F
  0.0312500000000000  0.8750000000000000  0.5486111111111143   F   F   F
  0.2812500000000000  0.3750000000000000  0.5486111111111143   F   F   F
  0.2812500000000000  0.8750000000000000  0.5486111111111143   F   F   F
  0.5312500000000000  0.3750000000000000  0.5486111111111143   F   F   F
  0.5312500000000000  0.8750000000000000  0.5486111111111143   F   F   F
  0.7812500000000000  0.3750000000000000  0.5486111111111143   F   F   F
  0.7812500000000000  0.8750000000000000  0.5486111111111143   F   F   F
  0.0937500000000000  0.1250000000000000  0.5347222222222214   F   F   F
  0.0937500000000000  0.6250000000000000  0.5347222222222214   F   F   F
  0.3437500000000000  0.1250000000000000  0.5347222222222214   F   F   F
  0.3437500000000000  0.6250000000000000  0.5347222222222214   F   F   F
  0.5937500000000000  0.1250000000000000  0.5347222222222214   F   F   F
  0.5937500000000000  0.6250000000000000  0.5347222222222214   F   F   F
  0.8437500000000000  0.1250000000000000  0.5347222222222214   F   F   F
  0.8437500000000000  0.6250000000000000  0.5347222222222214   F   F   F
  0.2187500000000000  0.1250000000000000  0.4513888888888857   F   F   F
  0.2187500000000000  0.6250000000000000  0.4513888888888857   F   F   F
  0.4687500000000000  0.1250000000000000  0.4513888888888857   F   F   F
  0.4687500000000000  0.6250000000000000  0.4513888888888857   F   F   F
  0.7187500000000000  0.1250000000000000  0.4513888888888857   F   F   F
  0.7187500000000000  0.6250000000000000  0.4513888888888857   F   F   F
  0.9687500000000000  0.1250000000000000  0.4513888888888857   F   F   F
  0.9687500000000000  0.6250000000000000  0.4513888888888857   F   F   F
  0.1584798097063780  0.3666734439708377  0.6356726222318209   T   T   T
  0.1534089038189130  0.8825454799045291  0.6315325782859208   T   T   T
  0.3979442017908545  0.4045884313928369  0.6297735274543080   T   T   T
  0.4150764535433056  0.8614045584558901  0.6450839291761506   T   T   T
  0.6550732980994900  0.3816470630095892  0.6330219326605746   T   T   T
  0.6482353097943034  0.9042693730043178  0.6276912762738319   T   T   T
  0.9017059738827804  0.3965595117841058  0.6305690232240877   T   T   T
  0.8972872975036212  0.8838326072717609  0.6319970629118218   T   T   T
  0.0227266258063417  0.4059214885984582  0.7166179127209237   T   T   T
  0.0056508220097451  0.8000543438005764  0.7291384865951579   T   T   T
  0.2747648824282715  0.4057181706201103  0.7164210160583304   T   T   T
  0.2444138562269549  0.8552868947636063  0.7245162612933784   T   T   T
  0.5230865592839433  0.4045632480449632  0.7170547093849434   T   T   T
  0.6449481799153020  0.7849558728104659  0.7306184988732819   T   T   T
  0.7780086799208641  0.3984252596002648  0.7193373270029826   T   T   T
  0.7730242016995740  0.9515008500301800  0.7193650093636376   T   T   T
  0.0808966928871900  0.1621419828999701  0.6985652252887352   T   T   T
  0.1017399152916987  0.6035863594821603  0.7121152706002952   T   T   T
  0.3376810717952018  0.1602794383428888  0.7001423382681125   T   T   T
  0.3427859560810928  0.6352509571839120  0.7090107664954626   T   T   T
  0.5800730247144293  0.1726011884463092  0.6991047515147063   T   T   T
  0.6003381495048489  0.6042737761101394  0.7115360224512731   T   T   T
  0.8324403478622551  0.1725271660958214  0.6998529214816617   T   T   T
  0.8457141104972067  0.6437013018531252  0.7042767768877107   T   T   T
  0.2163968803808191  0.1270174012780591  0.6197149481599193   T   T   T
  0.2175614237593883  0.6329661400894863  0.6187015915866892   T   T   T
  0.4714293348122510  0.1012644273615672  0.6268076197760587   T   T   T
  0.4651144555240696  0.6455640302267964  0.6163091896307314   T   T   T
  0.7145119263772982  0.1403201124119299  0.6170315730056158   T   T   T
  0.7184529303266615  0.6304458691069472  0.6189419634670347   T   T   T
  0.9777087248027847  0.0852877456315793  0.6306276420520412   T   T   T
  0.9701430581080184  0.6308616262240261  0.6175021679963237   T   T   T
  0.2556525418045983 -0.0161530784235637  0.7709353953266513   T   T   T
 
  0.00000000E+00  0.00000000E+00  0.00000000E+00
  0.00000000E+00  0.00000000E+00  0.00000000E+00
  0.00000000E+00  0.00000000E+00  0.00000000E+00
  0.00000000E+00  0.00000000E+00  0.00000000E+00
  0.00000000E+00  0.00000000E+00  0.00000000E+00
  0.00000000E+00  0.00000000E+00  0.00000000E+00
  0.00000000E+00  0.00000000E+00  0.00000000E+00
  0.00000000E+00  0.00000000E+00  0.00000000E+00
  0.00000000E+00  0.00000000E+00  0.00000000E+00
  0.00000000E+00  0.00000000E+00  0.00000000E+00
  0.00000000E+00  0.00000000E+00  0.00000000E+00
  0.00000000E+00  0.00000000E+00  0.00000000E+00
  0.00000000E+00  0.00000000E+00  0.00000000E+00
  0.00000000E+00  0.00000000E+00  0.00000000E+00
  0.00000000E+00  0.00000000E+00  0.00000000E+00
  0.00000000E+00  0.00000000E+00  0.00000000E+00
  0.00000000E+00  0.00000000E+00  0.00000000E+00
  0.00000000E+00  0.00000000E+00  0.00000000E+00
  0.00000000E+00  0.00000000E+00  0.00000000E+00
  0.00000000E+00  0.00000000E+00  0.00000000E+00
  0.00000000E+00  0.00000000E+00  0.00000000E+00
  0.00000000E+00  0.00000000E+00  0.00000000E+00
  0.00000000E+00  0.00000000E+00  0.00000000E+00
  0.00000000E+00  0.00000000E+00  0.00000000E+00
  0.00000000E+00  0.00000000E+00  0.00000000E+00
  0.00000000E+00  0.00000000E+00  0.00000000E+00
  0.00000000E+00  0.00000000E+00  0.00000000E+00
  0.00000000E+00  0.00000000E+00  0.00000000E+00
  0.00000000E+00  0.00000000E+00  0.00000000E+00
  0.00000000E+00  0.00000000E+00  0.00000000E+00
  0.00000000E+00  0.00000000E+00  0.00000000E+00
  0.00000000E+00  0.00000000E+00  0.00000000E+00
  0.00000000E+00  0.00000000E+00  0.00000000E+00
  0.00000000E+00  0.00000000E+00  0.00000000E+00
  0.00000000E+00  0.00000000E+00  0.00000000E+00
  0.00000000E+00  0.00000000E+00  0.00000000E+00
  0.00000000E+00  0.00000000E+00  0.00000000E+00
  0.00000000E+00  0.00000000E+00  0.00000000E+00
  0.00000000E+00  0.00000000E+00  0.00000000E+00
  0.00000000E+00  0.00000000E+00  0.00000000E+00
  0.00000000E+00  0.00000000E+00  0.00000000E+00
  0.00000000E+00  0.00000000E+00  0.00000000E+00
  0.00000000E+00  0.00000000E+00  0.00000000E+00
  0.00000000E+00  0.00000000E+00  0.00000000E+00
  0.00000000E+00  0.00000000E+00  0.00000000E+00
  0.00000000E+00  0.00000000E+00  0.00000000E+00
  0.00000000E+00  0.00000000E+00  0.00000000E+00
  0.00000000E+00  0.00000000E+00  0.00000000E+00
  0.00000000E+00  0.00000000E+00  0.00000000E+00
  0.00000000E+00  0.00000000E+00  0.00000000E+00
  0.00000000E+00  0.00000000E+00  0.00000000E+00
  0.00000000E+00  0.00000000E+00  0.00000000E+00
  0.00000000E+00  0.00000000E+00  0.00000000E+00
  0.00000000E+00  0.00000000E+00  0.00000000E+00
  0.00000000E+00  0.00000000E+00  0.00000000E+00
  0.00000000E+00  0.00000000E+00  0.00000000E+00
  0.00000000E+00  0.00000000E+00  0.00000000E+00
  0.00000000E+00  0.00000000E+00  0.00000000E+00
  0.00000000E+00  0.00000000E+00  0.00000000E+00
  0.00000000E+00  0.00000000E+00  0.00000000E+00
  0.00000000E+00  0.00000000E+00  0.00000000E+00
  0.00000000E+00  0.00000000E+00  0.00000000E+00
  0.00000000E+00  0.00000000E+00  0.00000000E+00
  0.00000000E+00  0.00000000E+00  0.00000000E+00
  0.00000000E+00  0.00000000E+00  0.00000000E+00
  0.00000000E+00  0.00000000E+00  0.00000000E+00
  0.00000000E+00  0.00000000E+00  0.00000000E+00
  0.00000000E+00  0.00000000E+00  0.00000000E+00
  0.00000000E+00  0.00000000E+00  0.00000000E+00
  0.00000000E+00  0.00000000E+00  0.00000000E+00
  0.00000000E+00  0.00000000E+00  0.00000000E+00
  0.00000000E+00  0.00000000E+00  0.00000000E+00
  0.00000000E+00  0.00000000E+00  0.00000000E+00
  0.00000000E+00  0.00000000E+00  0.00000000E+00
  0.00000000E+00  0.00000000E+00  0.00000000E+00
  0.00000000E+00  0.00000000E+00  0.00000000E+00
  0.00000000E+00  0.00000000E+00  0.00000000E+00
  0.00000000E+00  0.00000000E+00  0.00000000E+00
  0.00000000E+00  0.00000000E+00  0.00000000E+00
  0.00000000E+00  0.00000000E+00  0.00000000E+00
  0.00000000E+00  0.00000000E+00  0.00000000E+00
  0.00000000E+00  0.00000000E+00  0.00000000E+00
  0.00000000E+00  0.00000000E+00  0.00000000E+00
  0.00000000E+00  0.00000000E+00  0.00000000E+00
  0.00000000E+00  0.00000000E+00  0.00000000E+00
  0.00000000E+00  0.00000000E+00  0.00000000E+00
  0.00000000E+00  0.00000000E+00  0.00000000E+00
  0.00000000E+00  0.00000000E+00  0.00000000E+00
  0.00000000E+00  0.00000000E+00  0.00000000E+00
  0.00000000E+00  0.00000000E+00  0.00000000E+00
  0.00000000E+00  0.00000000E+00  0.00000000E+00
  0.00000000E+00  0.00000000E+00  0.00000000E+00
  0.00000000E+00  0.00000000E+00  0.00000000E+00
  0.00000000E+00  0.00000000E+00  0.00000000E+00
  0.00000000E+00  0.00000000E+00  0.00000000E+00
  0.00000000E+00  0.00000000E+00  0.00000000E+00
  0.00000000E+00  0.00000000E+00  0.00000000E+00
  0.00000000E+00  0.00000000E+00  0.00000000E+00
  0.00000000E+00  0.00000000E+00  0.00000000E+00
