Na2 Ti64 Cu64 S2                        
   1.00000000000000     
    12.5468749601132661    0.0000000000000000   -0.0023845427473836
     6.2718613598715018    8.6718031553237864    0.3861000546476283
     0.0000000000000000    0.0000000000000000   34.7217897683016261
   Na   Ti   Cu   S 
     2    64    64     2
Selective dynamics
Direct
  0.0139142592584041  0.2664214503973221  0.7890924343486034   T   T   T
  0.1790798436642139  0.7221608623806295  0.7995635768458867   T   T   T
  0.3164425933806569  0.2395664277010923  0.3457212966903285   F   F   F
  0.8164425933806569  0.2395664277010923  0.3457212966903285   F   F   F
  0.4414425933806569  0.4895664277010923  0.4082212966903285   F   F   F
  0.9414425933806569  0.4895664277010923  0.4082212966903285   F   F   F
  0.0664425933806569  0.7395664277010923  0.4707212966903285   F   F   F
  0.5664425933806569  0.7395664277010923  0.4707212966903285   F   F   F
  0.1914425933806569  0.9895664277010923  0.2832212966903285   F   F   F
  0.6914425933806569  0.9895664277010923  0.2832212966903285   F   F   F
  0.0572832138505461  0.0078851867613068  0.4661416069252695   F   F   F
  0.5572832138505461  0.0078851867613068  0.4661416069252695   F   F   F
  0.1822832138505461  0.2578851867613068  0.2786416069252695   F   F   F
  0.6822832138505461  0.2578851867613068  0.2786416069252695   F   F   F
  0.3072832138505461  0.5078851867613068  0.3411416069252695   F   F   F
  0.8072832138505461  0.5078851867613068  0.3411416069252695   F   F   F
  0.4322832138505461  0.7578851867613068  0.4036416069252695   F   F   F
  0.9322832138505461  0.7578851867613068  0.4036416069252695   F   F   F
  0.4427167861494539  0.9921148132386861  0.2838583930747305   F   F   F
  0.9427167861494539  0.9921148132386861  0.2838583930747305   F   F   F
  0.0677167861494539  0.2421148132386861  0.3463583930747305   F   F   F
  0.5677167861494539  0.2421148132386861  0.3463583930747305   F   F   F
  0.1927167861494539  0.4921148132386861  0.4088583930747305   F   F   F
  0.6927167861494539  0.4921148132386861  0.4088583930747305   F   F   F
  0.3177167861494539  0.7421148132386861  0.4713583930747305   F   F   F
  0.8177167861494539  0.7421148132386861  0.4713583930747305   F   F   F
  0.1835574066193431  0.7604335722989077  0.4042787033096715   F   F   F
  0.6835574066193431  0.7604335722989077  0.4042787033096715   F   F   F
  0.3085574066193431  0.0104335722989077  0.4667787033096715   F   F   F
  0.8085574066193431  0.0104335722989077  0.4667787033096715   F   F   F
  0.4335574066193431  0.2604335722989077  0.2792787033096715   F   F   F
  0.9335574066193431  0.2604335722989077  0.2792787033096715   F   F   F
  0.0585574066193431  0.5104335722989077  0.3417787033096715   F   F   F
  0.5585574066193431  0.5104335722989077  0.3417787033096715   F   F   F
  0.3164425933806569  0.2395664277010923  0.5957212966903285   F   F   F
  0.8164425933806569  0.2395664277010923  0.5957212966903285   F   F   F
  0.4345808163065497  0.4963107093705630  0.6596397090115625   T   T   T
  0.9404945454516466  0.4960952591961665  0.6588910197290573   T   T   T
  0.0560964170241625  0.7513325405346344  0.7174297447145905   T   T   T
  0.5733035112634487  0.7355134328596611  0.7190548725739193   T   T   T
  0.1914425933806569  0.9895664277010923  0.5332212966903285   F   F   F
  0.6914425933806569  0.9895664277010923  0.5332212966903285   F   F   F
  0.0637318597956309  0.0087934695971537  0.7179701083058453   T   T   T
  0.5569071884887024  0.0055325459718219  0.7136729061198991   T   T   T
  0.1822832138505461  0.2578851867613068  0.5286416069252695   F   F   F
  0.6822832138505461  0.2578851867613068  0.5286416069252695   F   F   F
  0.3072832138505461  0.5078851867613068  0.5911416069252695   F   F   F
  0.8072832138505461  0.5078851867613068  0.5911416069252695   F   F   F
  0.4314219573212045  0.7604638100643876  0.6535646405309102   T   T   T
  0.9272992880308388  0.7650751874097821  0.6520721711604871   T   T   T
  0.4427167861494539  0.9921148132386861  0.5338583930747305   F   F   F
  0.9427167861494539  0.9921148132386861  0.5338583930747305   F   F   F
  0.0677167861494539  0.2421148132386861  0.5963583930747305   F   F   F
  0.5677167861494539  0.2421148132386861  0.5963583930747305   F   F   F
  0.1875961117632131  0.4999669823091024  0.6596845293126868   T   T   T
  0.6924931071997841  0.4922731705024907  0.6603855106053979   T   T   T
  0.3195029061848821  0.7323303510467806  0.7196085464111068   T   T   T
  0.8144061396597494  0.7403960181604998  0.7186532803333935   T   T   T
  0.1783736793935445  0.7686511489861647  0.6527857606621812   T   T   T
  0.6816090879296048  0.7613494961054725  0.6529466054342983   T   T   T
  0.3142297766345943  0.0130318936840696  0.7173661392641901   T   T   T
  0.7885862016766658  0.0193527383303079  0.7162215555898931   T   T   T
  0.4335574066193431  0.2604335722989077  0.5292787033096715   F   F   F
  0.9335574066193431  0.2604335722989077  0.5292787033096715   F   F   F
  0.0585574066193431  0.5104335722989077  0.5917787033096715   F   F   F
  0.5585574066193431  0.5104335722989077  0.5917787033096715   F   F   F
  0.4397259614144460  0.2396631623782639  0.4073629807072265   F   F   F
  0.9397259614144460  0.2396631623782639  0.4073629807072265   F   F   F
  0.0647259614144460  0.4896631623782639  0.4698629807072265   F   F   F
  0.5647259614144460  0.4896631623782639  0.4698629807072265   F   F   F
  0.1897259614144460  0.7396631623782639  0.2823629807072265   F   F   F
  0.6897259614144460  0.7396631623782639  0.2823629807072265   F   F   F
  0.3147259614144460  0.9896631623782639  0.3448629807072265   F   F   F
  0.8147259614144460  0.9896631623782639  0.3448629807072265   F   F   F
  0.4323315811891320  0.0044519228288920  0.4036657905945660   F   F   F
  0.9323315811891320  0.0044519228288920  0.4036657905945660   F   F   F
  0.0573315811891320  0.2544519228288920  0.4661657905945660   F   F   F
  0.5573315811891320  0.2544519228288920  0.4661657905945660   F   F   F
  0.1823315811891320  0.5044519228288920  0.2786657905945660   F   F   F
  0.6823315811891320  0.5044519228288920  0.2786657905945660   F   F   F
  0.3073315811891320  0.7544519228288920  0.3411657905945660   F   F   F
  0.8073315811891320  0.7544519228288920  0.3411657905945660   F   F   F
  0.0676684188108680  0.9955480771711080  0.3463342094054340   F   F   F
  0.5676684188108680  0.9955480771711080  0.3463342094054340   F   F   F
  0.1926684188108680  0.2455480771711080  0.4088342094054340   F   F   F
  0.6926684188108680  0.2455480771711080  0.4088342094054340   F   F   F
  0.3176684188108680  0.4955480771711080  0.4713342094054340   F   F   F
  0.8176684188108680  0.4955480771711080  0.4713342094054340   F   F   F
  0.4426684188108680  0.7455480771711080  0.2838342094054340   F   F   F
  0.9426684188108680  0.7455480771711080  0.2838342094054340   F   F   F
  0.0602740385855540  0.7603368376217361  0.3426370192927735   F   F   F
  0.5602740385855540  0.7603368376217361  0.3426370192927735   F   F   F
  0.1852740385855540  0.0103368376217361  0.4051370192927735   F   F   F
  0.6852740385855540  0.0103368376217361  0.4051370192927735   F   F   F
  0.3102740385855540  0.2603368376217361  0.4676370192927735   F   F   F
  0.8102740385855540  0.2603368376217361  0.4676370192927735   F   F   F
  0.4352740385855540  0.5103368376217361  0.2801370192927735   F   F   F
  0.9352740385855540  0.5103368376217361  0.2801370192927735   F   F   F
  0.4374215296355952  0.2413196941586390  0.6575865441565629   T   T   T
  0.9405113301566398  0.2395639604088942  0.6577613474418903   T   T   T
  0.0696492396735841  0.4886683682077790  0.7222619191998516   T   T   T
  0.5706758631390920  0.4789490855864663  0.7198791450870787   T   T   T
  0.1897259614144460  0.7396631623782639  0.5323629807072265   F   F   F
  0.6897259614144460  0.7396631623782639  0.5323629807072265   F   F   F
  0.3147259614144460  0.9896631623782639  0.5948629807072265   F   F   F
  0.8147259614144460  0.9896631623782639  0.5948629807072265   F   F   F
  0.4330885878761917  0.0035024000165292  0.6530849280253181   T   T   T
  0.9275768747054527  0.0108968753158346  0.6562942398633095   T   T   T
  0.0619208124553274  0.2602718388100180  0.7117884224579794   T   T   T
  0.5345146944619174  0.2690218367855008  0.7180489458343652   T   T   T
  0.1823315811891320  0.5044519228288920  0.5286657905945660   F   F   F
  0.6823315811891320  0.5044519228288920  0.5286657905945660   F   F   F
  0.3073315811891320  0.7544519228288920  0.5911657905945660   F   F   F
  0.8073315811891320  0.7544519228288920  0.5911657905945660   F   F   F
  0.0676684188108680  0.9955480771711080  0.5963342094054340   F   F   F
  0.5676684188108680  0.9955480771711080  0.5963342094054340   F   F   F
  0.1979701590516530  0.2456296631084902  0.6583465932995550   T   T   T
  0.6847662877621925  0.2481108326293665  0.6603119090703421   T   T   T
  0.2997808052645318  0.5027687719366331  0.7246385444591110   T   T   T
  0.8241875820094964  0.4838357978941996  0.7218339302135590   T   T   T
  0.4426684188108680  0.7455480771711080  0.5338342094054340   F   F   F
  0.9426684188108680  0.7455480771711080  0.5338342094054340   F   F   F
  0.0602740385855540  0.7603368376217361  0.5926370192927735   F   F   F
  0.5602740385855540  0.7603368376217361  0.5926370192927735   F   F   F
  0.1860306742739500  0.0124813904162946  0.6560893832229215   T   T   T
  0.6823957992834204  0.0100870640963441  0.6536372309785473   T   T   T
  0.3109962638585403  0.2634693042999765  0.7191485794677129   T   T   T
  0.8122187340306756  0.2585801035543047  0.7167477325187711   T   T   T
  0.4352740385855540  0.5103368376217361  0.5301370192927735   F   F   F
  0.9352740385855540  0.5103368376217361  0.5301370192927735   F   F   F
  0.2459469963760239  0.9285641190733861  0.7695629311313267   T   T   T
  0.9350121989669881 -0.0165894982632169  0.7658063576997149   T   T   T
 
  0.00000000E+00  0.00000000E+00  0.00000000E+00
  0.00000000E+00  0.00000000E+00  0.00000000E+00
  0.00000000E+00  0.00000000E+00  0.00000000E+00
  0.00000000E+00  0.00000000E+00  0.00000000E+00
  0.00000000E+00  0.00000000E+00  0.00000000E+00
  0.00000000E+00  0.00000000E+00  0.00000000E+00
  0.00000000E+00  0.00000000E+00  0.00000000E+00
  0.00000000E+00  0.00000000E+00  0.00000000E+00
  0.00000000E+00  0.00000000E+00  0.00000000E+00
  0.00000000E+00  0.00000000E+00  0.00000000E+00
  0.00000000E+00  0.00000000E+00  0.00000000E+00
  0.00000000E+00  0.00000000E+00  0.00000000E+00
  0.00000000E+00  0.00000000E+00  0.00000000E+00
  0.00000000E+00  0.00000000E+00  0.00000000E+00
  0.00000000E+00  0.00000000E+00  0.00000000E+00
  0.00000000E+00  0.00000000E+00  0.00000000E+00
  0.00000000E+00  0.00000000E+00  0.00000000E+00
  0.00000000E+00  0.00000000E+00  0.00000000E+00
  0.00000000E+00  0.00000000E+00  0.00000000E+00
  0.00000000E+00  0.00000000E+00  0.00000000E+00
  0.00000000E+00  0.00000000E+00  0.00000000E+00
  0.00000000E+00  0.00000000E+00  0.00000000E+00
  0.00000000E+00  0.00000000E+00  0.00000000E+00
  0.00000000E+00  0.00000000E+00  0.00000000E+00
  0.00000000E+00  0.00000000E+00  0.00000000E+00
  0.00000000E+00  0.00000000E+00  0.00000000E+00
  0.00000000E+00  0.00000000E+00  0.00000000E+00
  0.00000000E+00  0.00000000E+00  0.00000000E+00
  0.00000000E+00  0.00000000E+00  0.00000000E+00
  0.00000000E+00  0.00000000E+00  0.00000000E+00
  0.00000000E+00  0.00000000E+00  0.00000000E+00
  0.00000000E+00  0.00000000E+00  0.00000000E+00
  0.00000000E+00  0.00000000E+00  0.00000000E+00
  0.00000000E+00  0.00000000E+00  0.00000000E+00
  0.00000000E+00  0.00000000E+00  0.00000000E+00
  0.00000000E+00  0.00000000E+00  0.00000000E+00
  0.00000000E+00  0.00000000E+00  0.00000000E+00
  0.00000000E+00  0.00000000E+00  0.00000000E+00
  0.00000000E+00  0.00000000E+00  0.00000000E+00
  0.00000000E+00  0.00000000E+00  0.00000000E+00
  0.00000000E+00  0.00000000E+00  0.00000000E+00
  0.00000000E+00  0.00000000E+00  0.00000000E+00
  0.00000000E+00  0.00000000E+00  0.00000000E+00
  0.00000000E+00  0.00000000E+00  0.00000000E+00
  0.00000000E+00  0.00000000E+00  0.00000000E+00
  0.00000000E+00  0.00000000E+00  0.00000000E+00
  0.00000000E+00  0.00000000E+00  0.00000000E+00
  0.00000000E+00  0.00000000E+00  0.00000000E+00
  0.00000000E+00  0.00000000E+00  0.00000000E+00
  0.00000000E+00  0.00000000E+00  0.00000000E+00
  0.00000000E+00  0.00000000E+00  0.00000000E+00
  0.00000000E+00  0.00000000E+00  0.00000000E+00
  0.00000000E+00  0.00000000E+00  0.00000000E+00
  0.00000000E+00  0.00000000E+00  0.00000000E+00
  0.00000000E+00  0.00000000E+00  0.00000000E+00
  0.00000000E+00  0.00000000E+00  0.00000000E+00
  0.00000000E+00  0.00000000E+00  0.00000000E+00
  0.00000000E+00  0.00000000E+00  0.00000000E+00
  0.00000000E+00  0.00000000E+00  0.00000000E+00
  0.00000000E+00  0.00000000E+00  0.00000000E+00
  0.00000000E+00  0.00000000E+00  0.00000000E+00
  0.00000000E+00  0.00000000E+00  0.00000000E+00
  0.00000000E+00  0.00000000E+00  0.00000000E+00
  0.00000000E+00  0.00000000E+00  0.00000000E+00
  0.00000000E+00  0.00000000E+00  0.00000000E+00
  0.00000000E+00  0.00000000E+00  0.00000000E+00
  0.00000000E+00  0.00000000E+00  0.00000000E+00
  0.00000000E+00  0.00000000E+00  0.00000000E+00
  0.00000000E+00  0.00000000E+00  0.00000000E+00
  0.00000000E+00  0.00000000E+00  0.00000000E+00
  0.00000000E+00  0.00000000E+00  0.00000000E+00
  0.00000000E+00  0.00000000E+00  0.00000000E+00
  0.00000000E+00  0.00000000E+00  0.00000000E+00
  0.00000000E+00  0.00000000E+00  0.00000000E+00
  0.00000000E+00  0.00000000E+00  0.00000000E+00
  0.00000000E+00  0.00000000E+00  0.00000000E+00
  0.00000000E+00  0.00000000E+00  0.00000000E+00
  0.00000000E+00  0.00000000E+00  0.00000000E+00
  0.00000000E+00  0.00000000E+00  0.00000000E+00
  0.00000000E+00  0.00000000E+00  0.00000000E+00
  0.00000000E+00  0.00000000E+00  0.00000000E+00
  0.00000000E+00  0.00000000E+00  0.00000000E+00
  0.00000000E+00  0.00000000E+00  0.00000000E+00
  0.00000000E+00  0.00000000E+00  0.00000000E+00
  0.00000000E+00  0.00000000E+00  0.00000000E+00
  0.00000000E+00  0.00000000E+00  0.00000000E+00
  0.00000000E+00  0.00000000E+00  0.00000000E+00
  0.00000000E+00  0.00000000E+00  0.00000000E+00
  0.00000000E+00  0.00000000E+00  0.00000000E+00
  0.00000000E+00  0.00000000E+00  0.00000000E+00
  0.00000000E+00  0.00000000E+00  0.00000000E+00
  0.00000000E+00  0.00000000E+00  0.00000000E+00
  0.00000000E+00  0.00000000E+00  0.00000000E+00
  0.00000000E+00  0.00000000E+00  0.00000000E+00
  0.00000000E+00  0.00000000E+00  0.00000000E+00
  0.00000000E+00  0.00000000E+00  0.00000000E+00
  0.00000000E+00  0.00000000E+00  0.00000000E+00
  0.00000000E+00  0.00000000E+00  0.00000000E+00
  0.00000000E+00  0.00000000E+00  0.00000000E+00
  0.00000000E+00  0.00000000E+00  0.00000000E+00
  0.00000000E+00  0.00000000E+00  0.00000000E+00
  0.00000000E+00  0.00000000E+00  0.00000000E+00
  0.00000000E+00  0.00000000E+00  0.00000000E+00
  0.00000000E+00  0.00000000E+00  0.00000000E+00
  0.00000000E+00  0.00000000E+00  0.00000000E+00
  0.00000000E+00  0.00000000E+00  0.00000000E+00
  0.00000000E+00  0.00000000E+00  0.00000000E+00
  0.00000000E+00  0.00000000E+00  0.00000000E+00
  0.00000000E+00  0.00000000E+00  0.00000000E+00
  0.00000000E+00  0.00000000E+00  0.00000000E+00
  0.00000000E+00  0.00000000E+00  0.00000000E+00
  0.00000000E+00  0.00000000E+00  0.00000000E+00
  0.00000000E+00  0.00000000E+00  0.00000000E+00
  0.00000000E+00  0.00000000E+00  0.00000000E+00
  0.00000000E+00  0.00000000E+00  0.00000000E+00
  0.00000000E+00  0.00000000E+00  0.00000000E+00
  0.00000000E+00  0.00000000E+00  0.00000000E+00
  0.00000000E+00  0.00000000E+00  0.00000000E+00
  0.00000000E+00  0.00000000E+00  0.00000000E+00
  0.00000000E+00  0.00000000E+00  0.00000000E+00
  0.00000000E+00  0.00000000E+00  0.00000000E+00
  0.00000000E+00  0.00000000E+00  0.00000000E+00
  0.00000000E+00  0.00000000E+00  0.00000000E+00
  0.00000000E+00  0.00000000E+00  0.00000000E+00
  0.00000000E+00  0.00000000E+00  0.00000000E+00
  0.00000000E+00  0.00000000E+00  0.00000000E+00
  0.00000000E+00  0.00000000E+00  0.00000000E+00
  0.00000000E+00  0.00000000E+00  0.00000000E+00
  0.00000000E+00  0.00000000E+00  0.00000000E+00
  0.00000000E+00  0.00000000E+00  0.00000000E+00
  0.00000000E+00  0.00000000E+00  0.00000000E+00
  0.00000000E+00  0.00000000E+00  0.00000000E+00
