K2 V8 O20                               
    1.000000000000000     
    11.6924127381951219   -0.0000000000000000   -0.5677826145736288
    -0.0000000000000002    3.6977778285191247    0.0000000000000002
    -0.0851299876973330    0.0000000000000000    9.5962824549330445
   K    V    O 
     2     8    20
Direct
  0.8665289624943531  0.5000000000000000  0.5361169720385246
  0.1334710375056468  0.5000000000000000  0.4638830279614757
  0.0630959189250087  0.0000000000000000  0.8437564853668968
  0.9369040810749911  0.0000000000000000  0.1562435146331030
  0.5603359331520499  0.5000000000000000  0.8462852991598102
  0.4396640668479501  0.5000000000000000  0.1537147008401901
  0.7660164814844513  0.0000000000000000  0.8534208635827383
  0.2339835185155489  0.0000000000000000  0.1465791364172617
  0.2653715574638774  0.5000000000000000  0.8446107082424110
  0.7346284425361228  0.5000000000000000  0.1553892917575888
  0.5972214920562781  0.0000000000000000  0.8756147755428197
  0.4027785079437222  1.0000000000000000  0.1243852244571806
  0.1033442102831533  0.5000000000000000  0.8722240415492613
  0.8966557897168469  0.5000000000000000  0.1277759584507386
  0.9121119898209560  0.0000000000000000  0.9109613441720621
  0.0878880101790437  0.0000000000000000  0.0890386558279380
  0.4156714773459471  0.5000000000000000  0.9075405307816570
  0.5843285226540527  0.5000000000000000  0.0924594692183429
  0.2389465763374644  0.0000000000000000  0.8845685126582260
  0.7610534236625355  0.0000000000000000  0.1154314873417737
  0.7321734454138682  0.5000000000000000  0.8905886924276086
  0.2678265545861318  0.5000000000000000  0.1094113075723914
  0.0359067669189926  0.0000000000000000  0.6717014644605735
  0.9640932330810146  0.0000000000000000  0.3282985355394262
  0.5410664216053839  0.5000000000000000  0.6812926381268490
  0.4589335783946091  0.5000000000000000  0.3187073618731511
  0.7726686386759414  0.0000000000000000  0.6853192195004970
  0.2273313613240587  0.0000000000000000  0.3146807804995025
  0.2745589923550377  0.5000000000000000  0.6789646366090797
  0.7254410076449623  0.5000000000000000  0.3210353633909208
 
  0.00000000E+00  0.00000000E+00  0.00000000E+00
  0.00000000E+00  0.00000000E+00  0.00000000E+00
  0.00000000E+00  0.00000000E+00  0.00000000E+00
  0.00000000E+00  0.00000000E+00  0.00000000E+00
  0.00000000E+00  0.00000000E+00  0.00000000E+00
  0.00000000E+00  0.00000000E+00  0.00000000E+00
  0.00000000E+00  0.00000000E+00  0.00000000E+00
  0.00000000E+00  0.00000000E+00  0.00000000E+00
  0.00000000E+00  0.00000000E+00  0.00000000E+00
  0.00000000E+00  0.00000000E+00  0.00000000E+00
  0.00000000E+00  0.00000000E+00  0.00000000E+00
  0.00000000E+00  0.00000000E+00  0.00000000E+00
  0.00000000E+00  0.00000000E+00  0.00000000E+00
  0.00000000E+00  0.00000000E+00  0.00000000E+00
  0.00000000E+00  0.00000000E+00  0.00000000E+00
  0.00000000E+00  0.00000000E+00  0.00000000E+00
  0.00000000E+00  0.00000000E+00  0.00000000E+00
  0.00000000E+00  0.00000000E+00  0.00000000E+00
  0.00000000E+00  0.00000000E+00  0.00000000E+00
  0.00000000E+00  0.00000000E+00  0.00000000E+00
  0.00000000E+00  0.00000000E+00  0.00000000E+00
  0.00000000E+00  0.00000000E+00  0.00000000E+00
  0.00000000E+00  0.00000000E+00  0.00000000E+00
  0.00000000E+00  0.00000000E+00  0.00000000E+00
  0.00000000E+00  0.00000000E+00  0.00000000E+00
  0.00000000E+00  0.00000000E+00  0.00000000E+00
  0.00000000E+00  0.00000000E+00  0.00000000E+00
  0.00000000E+00  0.00000000E+00  0.00000000E+00
  0.00000000E+00  0.00000000E+00  0.00000000E+00
  0.00000000E+00  0.00000000E+00  0.00000000E+00
