Na2 Fe48 S4 O48                         
   1.00000000000000     
     8.7025565439899619    0.0000000000000000    0.0000000000000005
    -0.0000000000000005    8.7025565439899619    0.0000000000000005
     0.0000000000000000    0.0000000000000000   26.1076696319698840
   Na   Fe   S    O 
     2    48     4    48
Selective dynamics
Direct
  0.4748624475030424  0.9211994565831377  0.9220779613084791   T   T   T
  0.1675600542233100  0.1453556077843196  0.8759617100247414   T   T   T
  0.0000000000000000  0.0000000000000000  0.3750000000000000   F   F   F
  0.0000000000000000  0.5000000000000000  0.3750000000000000   F   F   F
  0.5000000000000000  0.0000000000000000  0.3750000000000000   F   F   F
  0.5000000000000000  0.5000000000000000  0.3750000000000000   F   F   F
  0.2500000000000000  0.2500000000000000  0.3750000000000000   F   F   F
  0.2500000000000000  0.7500000000000000  0.3750000000000000   F   F   F
  0.7500000000000000  0.2500000000000000  0.3750000000000000   F   F   F
  0.7500000000000000  0.7500000000000000  0.3750000000000000   F   F   F
  0.0000000000000000  0.2500000000000000  0.2916666666666643   F   F   F
  0.0000000000000000  0.7500000000000000  0.2916666666666643   F   F   F
  0.5000000000000000  0.2500000000000000  0.2916666666666643   F   F   F
  0.5000000000000000  0.7500000000000000  0.2916666666666643   F   F   F
  0.2500000000000000  0.0000000000000000  0.2916666666666643   F   F   F
  0.2500000000000000  0.5000000000000000  0.2916666666666643   F   F   F
  0.7500000000000000  0.0000000000000000  0.2916666666666643   F   F   F
  0.7500000000000000  0.5000000000000000  0.2916666666666643   F   F   F
  0.0000000000000000  0.0000000000000000  0.5416666666666643   F   F   F
  0.0000000000000000  0.5000000000000000  0.5416666666666643   F   F   F
  0.5000000000000000  0.0000000000000000  0.5416666666666643   F   F   F
  0.5000000000000000  0.5000000000000000  0.5416666666666643   F   F   F
  0.2500000000000000  0.2500000000000000  0.5416666666666643   F   F   F
  0.2500000000000000  0.7500000000000000  0.5416666666666643   F   F   F
  0.7500000000000000  0.2500000000000000  0.5416666666666643   F   F   F
  0.7500000000000000  0.7500000000000000  0.5416666666666643   F   F   F
  0.0000000000000000  0.2500000000000000  0.4583333333333357   F   F   F
  0.0000000000000000  0.7500000000000000  0.4583333333333357   F   F   F
  0.5000000000000000  0.2500000000000000  0.4583333333333357   F   F   F
  0.5000000000000000  0.7500000000000000  0.4583333333333357   F   F   F
  0.2500000000000000  0.0000000000000000  0.4583333333333357   F   F   F
  0.2500000000000000  0.5000000000000000  0.4583333333333357   F   F   F
  0.7500000000000000  0.0000000000000000  0.4583333333333357   F   F   F
  0.7500000000000000  0.5000000000000000  0.4583333333333357   F   F   F
 -0.0957445097168749 -0.0446967741553354  0.7168210686220318   T   T   T
  0.0081833051114741  0.5667892959566028  0.7045183182850233   T   T   T
  0.5165181461391577  0.0956613481762243  0.7490214879829291   T   T   T
  0.4322493683399657  0.4899766544124522  0.7029485044676910   T   T   T
  0.1695497528140882  0.2271271009923427  0.7057150034601161   T   T   T
  0.2751305404744266  0.8469005580906311  0.7124432579899265   T   T   T
  0.7683423951760247  0.3111841588478488  0.7050756934910906   T   T   T
  0.6934285983779575  0.7520866615079498  0.7013954430816383   T   T   T
 -0.0082105280195014  0.2361123801041854  0.6321957194407636   T   T   T
  0.0047918370919500  0.7625583876068975  0.6357391090722201   T   T   T
  0.5032903237086659  0.2510700447156909  0.6298615552311707   T   T   T
  0.4900068739163340  0.7528866311831884  0.6309723173531632   T   T   T
  0.2548175174444726 -0.0012115015527883  0.6310102874151343   T   T   T
  0.2475950176221373  0.4905059752569240  0.6310486045975189   T   T   T
  0.7355184094965869 -0.0218924679629047  0.6386670532004802   T   T   T
  0.7601354045064127  0.4941139015148859  0.6309022672864157   T   T   T
  0.1844661060707171  0.9645060805409621  0.9647488900275690   T   T   T
  0.5845285137545616  0.0761428304122273  0.8330871748591901   T   T   T
  0.4753785889585643  0.2251703914651373  0.8820820908312806   T   T   T
  0.1663177834481982 -0.1710156842741856  0.9015067303177435   T   T   T
  0.2500000000000000  0.0000000000000000  0.3750000000000000   F   F   F
  0.2500000000000000  0.5000000000000000  0.3750000000000000   F   F   F
  0.7500000000000000  0.0000000000000000  0.3750000000000000   F   F   F
  0.7500000000000000  0.5000000000000000  0.3750000000000000   F   F   F
  0.0000000000000000  0.2500000000000000  0.3750000000000000   F   F   F
  0.0000000000000000  0.7500000000000000  0.3750000000000000   F   F   F
  0.5000000000000000  0.2500000000000000  0.3750000000000000   F   F   F
  0.5000000000000000  0.7500000000000000  0.3750000000000000   F   F   F
  0.2500000000000000  0.2500000000000000  0.2916666666666643   F   F   F
  0.2500000000000000  0.7500000000000000  0.2916666666666643   F   F   F
  0.7500000000000000  0.2500000000000000  0.2916666666666643   F   F   F
  0.7500000000000000  0.7500000000000000  0.2916666666666643   F   F   F
  0.0000000000000000  0.0000000000000000  0.2916666666666643   F   F   F
  0.0000000000000000  0.5000000000000000  0.2916666666666643   F   F   F
  0.5000000000000000  0.0000000000000000  0.2916666666666643   F   F   F
  0.5000000000000000  0.5000000000000000  0.2916666666666643   F   F   F
  0.2500000000000000  0.0000000000000000  0.5416666666666643   F   F   F
  0.2500000000000000  0.5000000000000000  0.5416666666666643   F   F   F
  0.7500000000000000  0.0000000000000000  0.5416666666666643   F   F   F
  0.7500000000000000  0.5000000000000000  0.5416666666666643   F   F   F
  0.0000000000000000  0.2500000000000000  0.5416666666666643   F   F   F
  0.0000000000000000  0.7500000000000000  0.5416666666666643   F   F   F
  0.5000000000000000  0.2500000000000000  0.5416666666666643   F   F   F
  0.5000000000000000  0.7500000000000000  0.5416666666666643   F   F   F
  0.2500000000000000  0.2500000000000000  0.4583333333333357   F   F   F
  0.2500000000000000  0.7500000000000000  0.4583333333333357   F   F   F
  0.7500000000000000  0.2500000000000000  0.4583333333333357   F   F   F
  0.7500000000000000  0.7500000000000000  0.4583333333333357   F   F   F
  0.0000000000000000  0.0000000000000000  0.4583333333333357   F   F   F
  0.0000000000000000  0.5000000000000000  0.4583333333333357   F   F   F
  0.5000000000000000  0.0000000000000000  0.4583333333333357   F   F   F
  0.5000000000000000  0.5000000000000000  0.4583333333333357   F   F   F
  0.3054348126534837  0.0577585429066215  0.7305616999828344   T   T   T
  0.2064338193702282  0.4535435793414989  0.7136396508067288   T   T   T
  0.6794225599036122 -0.0268212810280125  0.7214928969694637   T   T   T
  0.7833657960433045  0.5414127793523232  0.7126392972933694   T   T   T
 -0.0504806095645098  0.1829116129412700  0.7202225721086605   T   T   T
  0.0581554157951492  0.7911514474056612  0.7200281068345179   T   T   T
  0.5394804365559964  0.2892951011461871  0.7120672300172119   T   T   T
  0.4583241809693669  0.7130349058475713  0.7124331132091739   T   T   T
  0.2554194440374278  0.2448686934939467  0.6263008928867516   T   T   T
  0.2450037873282369  0.7397990801538197  0.6215048231905445   T   T   T
  0.7474859973340788  0.2311830131945281  0.6261632737674190   T   T   T
  0.7597643047924002  0.7455086594741426  0.6211112282457213   T   T   T
  0.0098243754165335 -0.0009409900720284  0.6215548930606111   T   T   T
  0.0015823360510540  0.4905914971734239  0.6234653614972200   T   T   T
  0.4963833125330407 -0.0019165563606803  0.6217530632466184   T   T   T
  0.5116870045146349  0.5001149746927556  0.6242977598634233   T   T   T
 
  0.00000000E+00  0.00000000E+00  0.00000000E+00
  0.00000000E+00  0.00000000E+00  0.00000000E+00
  0.00000000E+00  0.00000000E+00  0.00000000E+00
  0.00000000E+00  0.00000000E+00  0.00000000E+00
  0.00000000E+00  0.00000000E+00  0.00000000E+00
  0.00000000E+00  0.00000000E+00  0.00000000E+00
  0.00000000E+00  0.00000000E+00  0.00000000E+00
  0.00000000E+00  0.00000000E+00  0.00000000E+00
  0.00000000E+00  0.00000000E+00  0.00000000E+00
  0.00000000E+00  0.00000000E+00  0.00000000E+00
  0.00000000E+00  0.00000000E+00  0.00000000E+00
  0.00000000E+00  0.00000000E+00  0.00000000E+00
  0.00000000E+00  0.00000000E+00  0.00000000E+00
  0.00000000E+00  0.00000000E+00  0.00000000E+00
  0.00000000E+00  0.00000000E+00  0.00000000E+00
  0.00000000E+00  0.00000000E+00  0.00000000E+00
  0.00000000E+00  0.00000000E+00  0.00000000E+00
  0.00000000E+00  0.00000000E+00  0.00000000E+00
  0.00000000E+00  0.00000000E+00  0.00000000E+00
  0.00000000E+00  0.00000000E+00  0.00000000E+00
  0.00000000E+00  0.00000000E+00  0.00000000E+00
  0.00000000E+00  0.00000000E+00  0.00000000E+00
  0.00000000E+00  0.00000000E+00  0.00000000E+00
  0.00000000E+00  0.00000000E+00  0.00000000E+00
  0.00000000E+00  0.00000000E+00  0.00000000E+00
  0.00000000E+00  0.00000000E+00  0.00000000E+00
  0.00000000E+00  0.00000000E+00  0.00000000E+00
  0.00000000E+00  0.00000000E+00  0.00000000E+00
  0.00000000E+00  0.00000000E+00  0.00000000E+00
  0.00000000E+00  0.00000000E+00  0.00000000E+00
  0.00000000E+00  0.00000000E+00  0.00000000E+00
  0.00000000E+00  0.00000000E+00  0.00000000E+00
  0.00000000E+00  0.00000000E+00  0.00000000E+00
  0.00000000E+00  0.00000000E+00  0.00000000E+00
  0.00000000E+00  0.00000000E+00  0.00000000E+00
  0.00000000E+00  0.00000000E+00  0.00000000E+00
  0.00000000E+00  0.00000000E+00  0.00000000E+00
  0.00000000E+00  0.00000000E+00  0.00000000E+00
  0.00000000E+00  0.00000000E+00  0.00000000E+00
  0.00000000E+00  0.00000000E+00  0.00000000E+00
  0.00000000E+00  0.00000000E+00  0.00000000E+00
  0.00000000E+00  0.00000000E+00  0.00000000E+00
  0.00000000E+00  0.00000000E+00  0.00000000E+00
  0.00000000E+00  0.00000000E+00  0.00000000E+00
  0.00000000E+00  0.00000000E+00  0.00000000E+00
  0.00000000E+00  0.00000000E+00  0.00000000E+00
  0.00000000E+00  0.00000000E+00  0.00000000E+00
  0.00000000E+00  0.00000000E+00  0.00000000E+00
  0.00000000E+00  0.00000000E+00  0.00000000E+00
  0.00000000E+00  0.00000000E+00  0.00000000E+00
  0.00000000E+00  0.00000000E+00  0.00000000E+00
  0.00000000E+00  0.00000000E+00  0.00000000E+00
  0.00000000E+00  0.00000000E+00  0.00000000E+00
  0.00000000E+00  0.00000000E+00  0.00000000E+00
  0.00000000E+00  0.00000000E+00  0.00000000E+00
  0.00000000E+00  0.00000000E+00  0.00000000E+00
  0.00000000E+00  0.00000000E+00  0.00000000E+00
  0.00000000E+00  0.00000000E+00  0.00000000E+00
  0.00000000E+00  0.00000000E+00  0.00000000E+00
  0.00000000E+00  0.00000000E+00  0.00000000E+00
  0.00000000E+00  0.00000000E+00  0.00000000E+00
  0.00000000E+00  0.00000000E+00  0.00000000E+00
  0.00000000E+00  0.00000000E+00  0.00000000E+00
  0.00000000E+00  0.00000000E+00  0.00000000E+00
  0.00000000E+00  0.00000000E+00  0.00000000E+00
  0.00000000E+00  0.00000000E+00  0.00000000E+00
  0.00000000E+00  0.00000000E+00  0.00000000E+00
  0.00000000E+00  0.00000000E+00  0.00000000E+00
  0.00000000E+00  0.00000000E+00  0.00000000E+00
  0.00000000E+00  0.00000000E+00  0.00000000E+00
  0.00000000E+00  0.00000000E+00  0.00000000E+00
  0.00000000E+00  0.00000000E+00  0.00000000E+00
  0.00000000E+00  0.00000000E+00  0.00000000E+00
  0.00000000E+00  0.00000000E+00  0.00000000E+00
  0.00000000E+00  0.00000000E+00  0.00000000E+00
  0.00000000E+00  0.00000000E+00  0.00000000E+00
  0.00000000E+00  0.00000000E+00  0.00000000E+00
  0.00000000E+00  0.00000000E+00  0.00000000E+00
  0.00000000E+00  0.00000000E+00  0.00000000E+00
  0.00000000E+00  0.00000000E+00  0.00000000E+00
  0.00000000E+00  0.00000000E+00  0.00000000E+00
  0.00000000E+00  0.00000000E+00  0.00000000E+00
  0.00000000E+00  0.00000000E+00  0.00000000E+00
  0.00000000E+00  0.00000000E+00  0.00000000E+00
  0.00000000E+00  0.00000000E+00  0.00000000E+00
  0.00000000E+00  0.00000000E+00  0.00000000E+00
  0.00000000E+00  0.00000000E+00  0.00000000E+00
  0.00000000E+00  0.00000000E+00  0.00000000E+00
  0.00000000E+00  0.00000000E+00  0.00000000E+00
  0.00000000E+00  0.00000000E+00  0.00000000E+00
  0.00000000E+00  0.00000000E+00  0.00000000E+00
  0.00000000E+00  0.00000000E+00  0.00000000E+00
  0.00000000E+00  0.00000000E+00  0.00000000E+00
  0.00000000E+00  0.00000000E+00  0.00000000E+00
  0.00000000E+00  0.00000000E+00  0.00000000E+00
  0.00000000E+00  0.00000000E+00  0.00000000E+00
  0.00000000E+00  0.00000000E+00  0.00000000E+00
  0.00000000E+00  0.00000000E+00  0.00000000E+00
  0.00000000E+00  0.00000000E+00  0.00000000E+00
  0.00000000E+00  0.00000000E+00  0.00000000E+00
  0.00000000E+00  0.00000000E+00  0.00000000E+00
  0.00000000E+00  0.00000000E+00  0.00000000E+00
