Na2 Fe72 S8                             
    1.000000000000000     
     8.5891064999999998    0.0000000000000000    0.0000000000000005
    -0.0000000000000005    8.0978872673112718    0.0000000000000005
     0.0000000000000000    0.0000000000000000   24.2936618019338120
   Na   Fe   S 
     2    72     8
Selective dynamics
Direct
  0.6059039655090775  0.0525881556454652  0.8859498376157789   T   T   T
  0.0922585574639552  0.9839986981497990  0.8432006964659708   T   T   T
  0.0000000000000000  0.2500000000000000  0.2916666666666643   F   F   F
  0.0000000000000000  0.7500000000000000  0.2916666666666643   F   F   F
  0.3333333333333357  0.2500000000000000  0.2916666666666643   F   F   F
  0.3333333333333357  0.7500000000000000  0.2916666666666643   F   F   F
  0.6666666666666643  0.2500000000000000  0.2916666666666643   F   F   F
  0.6666666666666643  0.7500000000000000  0.2916666666666643   F   F   F
  0.0000000000000000  0.0000000000000000  0.3750000000000000   F   F   F
  0.0000000000000000  0.5000000000000000  0.3750000000000000   F   F   F
  0.3333333333333357  0.0000000000000000  0.3750000000000000   F   F   F
  0.3333333333333357  0.5000000000000000  0.3750000000000000   F   F   F
  0.6666666666666643  0.0000000000000000  0.3750000000000000   F   F   F
  0.6666666666666643  0.5000000000000000  0.3750000000000000   F   F   F
  0.1666666666666643  0.2500000000000000  0.3750000000000000   F   F   F
  0.1666666666666643  0.7500000000000000  0.3750000000000000   F   F   F
  0.5000000000000000  0.2500000000000000  0.3750000000000000   F   F   F
  0.5000000000000000  0.7500000000000000  0.3750000000000000   F   F   F
  0.8333333333333357  0.2500000000000000  0.3750000000000000   F   F   F
  0.8333333333333357  0.7500000000000000  0.3750000000000000   F   F   F
  0.1666666666666643  0.0000000000000000  0.2916666666666643   F   F   F
  0.1666666666666643  0.5000000000000000  0.2916666666666643   F   F   F
  0.5000000000000000  0.0000000000000000  0.2916666666666643   F   F   F
  0.5000000000000000  0.5000000000000000  0.2916666666666643   F   F   F
  0.8333333333333357  0.0000000000000000  0.2916666666666643   F   F   F
  0.8333333333333357  0.5000000000000000  0.2916666666666643   F   F   F
  0.0000000000000000  0.2500000000000000  0.4583333333333357   F   F   F
  0.0000000000000000  0.7500000000000000  0.4583333333333357   F   F   F
  0.3333333333333357  0.2500000000000000  0.4583333333333357   F   F   F
  0.3333333333333357  0.7500000000000000  0.4583333333333357   F   F   F
  0.6666666666666643  0.2500000000000000  0.4583333333333357   F   F   F
  0.6666666666666643  0.7500000000000000  0.4583333333333357   F   F   F
  0.0000000000000000  0.0000000000000000  0.5416666666666643   F   F   F
  0.0000000000000000  0.5000000000000000  0.5416666666666643   F   F   F
  0.3333333333333357  0.0000000000000000  0.5416666666666643   F   F   F
  0.3333333333333357  0.5000000000000000  0.5416666666666643   F   F   F
  0.6666666666666643  0.0000000000000000  0.5416666666666643   F   F   F
  0.6666666666666643  0.5000000000000000  0.5416666666666643   F   F   F
  0.1666666666666643  0.2500000000000000  0.5416666666666643   F   F   F
  0.1666666666666643  0.7500000000000000  0.5416666666666643   F   F   F
  0.5000000000000000  0.2500000000000000  0.5416666666666643   F   F   F
  0.5000000000000000  0.7500000000000000  0.5416666666666643   F   F   F
  0.8333333333333357  0.2500000000000000  0.5416666666666643   F   F   F
  0.8333333333333357  0.7500000000000000  0.5416666666666643   F   F   F
  0.1666666666666643  0.0000000000000000  0.4583333333333357   F   F   F
  0.1666666666666643  0.5000000000000000  0.4583333333333357   F   F   F
  0.5000000000000000  0.0000000000000000  0.4583333333333357   F   F   F
  0.5000000000000000  0.5000000000000000  0.4583333333333357   F   F   F
  0.8333333333333357  0.0000000000000000  0.4583333333333357   F   F   F
  0.8333333333333357  0.5000000000000000  0.4583333333333357   F   F   F
  0.0011509875462016  0.2522404765620322  0.6244517255368851   T   T   T
  0.9998195707158014  0.7520615890351997  0.6238543111313748   T   T   T
  0.3386146811944994  0.2524178444437555  0.6257564790937798   T   T   T
  0.3345665102652066  0.7519589409009142  0.6251577702603663   T   T   T
  0.6643278766117139  0.2527631424472180  0.6256973230025521   T   T   T
  0.6664875737114929  0.7516516514422852  0.6249425226406172   T   T   T
  0.0008062913365945  0.0108301467543931  0.7110596779310070   T   T   T
  0.0019747846282892  0.5036034566031971  0.7091527549171911   T   T   T
  0.3383404785388905  0.0031027535495444  0.7094608651469412   T   T   T
  0.3307908591603702  0.5110094676579752  0.7156541571412584   T   T   T
  0.6676254733191473  0.0060871516906861  0.7126245484858393   T   T   T
  0.6737890167148087  0.5097955098150616  0.7092165870965842   T   T   T
  0.1820520622935802  0.2528804732041658  0.7064618402259294   T   T   T
  0.1554474238040640  0.7555854465160726  0.7051031221772041   T   T   T
  0.4964295550932277  0.2584614000374503  0.7152911334395117   T   T   T
  0.5101622343995069  0.7539932600893908  0.7073637416363771   T   T   T
  0.8316938725621467  0.2562082860352789  0.7054999534548343   T   T   T
  0.8377306734771613  0.7534484506756982  0.7062313620462570   T   T   T
  0.1676576267543475  0.0035722430246414  0.6256472934226268   T   T   T
  0.1690119004003110  0.5011087533932559  0.6257016643891021   T   T   T
  0.5025794960418064  0.0024087229104196  0.6263965072249359   T   T   T
  0.5002267269042606  0.5017787443733418  0.6270664009481481   T   T   T
  0.8333422361440341  0.0027864657490013  0.6257743040466057   T   T   T
  0.8337872737874860  0.5022720209142044  0.6251479547792859   T   T   T
  0.7843910364520011  0.7439797484495611  0.8697208022871459   T   T   T
  0.3274216089822175  0.7817455670901133  0.7725337196509193   T   T   T
  0.3201438174853713  0.2306945090625153  0.8646518981356465   T   T   T
  0.6785966078683160  0.3125068339787830  0.7766344825191351   T   T   T
  0.8224406583132560  0.8937085799952944  0.7820375738310104   T   T   T
  0.8767638009316442  0.8945566431008718  0.9276750124923190   T   T   T
  0.3946037692234141  0.3720845526286241  0.8001352869176332   T   T   T
  0.0115364933192479  0.2683097613098951  0.7708124324084804   T   T   T
 
  0.00000000E+00  0.00000000E+00  0.00000000E+00
  0.00000000E+00  0.00000000E+00  0.00000000E+00
  0.00000000E+00  0.00000000E+00  0.00000000E+00
  0.00000000E+00  0.00000000E+00  0.00000000E+00
  0.00000000E+00  0.00000000E+00  0.00000000E+00
  0.00000000E+00  0.00000000E+00  0.00000000E+00
  0.00000000E+00  0.00000000E+00  0.00000000E+00
  0.00000000E+00  0.00000000E+00  0.00000000E+00
  0.00000000E+00  0.00000000E+00  0.00000000E+00
  0.00000000E+00  0.00000000E+00  0.00000000E+00
  0.00000000E+00  0.00000000E+00  0.00000000E+00
  0.00000000E+00  0.00000000E+00  0.00000000E+00
  0.00000000E+00  0.00000000E+00  0.00000000E+00
  0.00000000E+00  0.00000000E+00  0.00000000E+00
  0.00000000E+00  0.00000000E+00  0.00000000E+00
  0.00000000E+00  0.00000000E+00  0.00000000E+00
  0.00000000E+00  0.00000000E+00  0.00000000E+00
  0.00000000E+00  0.00000000E+00  0.00000000E+00
  0.00000000E+00  0.00000000E+00  0.00000000E+00
  0.00000000E+00  0.00000000E+00  0.00000000E+00
  0.00000000E+00  0.00000000E+00  0.00000000E+00
  0.00000000E+00  0.00000000E+00  0.00000000E+00
  0.00000000E+00  0.00000000E+00  0.00000000E+00
  0.00000000E+00  0.00000000E+00  0.00000000E+00
  0.00000000E+00  0.00000000E+00  0.00000000E+00
  0.00000000E+00  0.00000000E+00  0.00000000E+00
  0.00000000E+00  0.00000000E+00  0.00000000E+00
  0.00000000E+00  0.00000000E+00  0.00000000E+00
  0.00000000E+00  0.00000000E+00  0.00000000E+00
  0.00000000E+00  0.00000000E+00  0.00000000E+00
  0.00000000E+00  0.00000000E+00  0.00000000E+00
  0.00000000E+00  0.00000000E+00  0.00000000E+00
  0.00000000E+00  0.00000000E+00  0.00000000E+00
  0.00000000E+00  0.00000000E+00  0.00000000E+00
  0.00000000E+00  0.00000000E+00  0.00000000E+00
  0.00000000E+00  0.00000000E+00  0.00000000E+00
  0.00000000E+00  0.00000000E+00  0.00000000E+00
  0.00000000E+00  0.00000000E+00  0.00000000E+00
  0.00000000E+00  0.00000000E+00  0.00000000E+00
  0.00000000E+00  0.00000000E+00  0.00000000E+00
  0.00000000E+00  0.00000000E+00  0.00000000E+00
  0.00000000E+00  0.00000000E+00  0.00000000E+00
  0.00000000E+00  0.00000000E+00  0.00000000E+00
  0.00000000E+00  0.00000000E+00  0.00000000E+00
  0.00000000E+00  0.00000000E+00  0.00000000E+00
  0.00000000E+00  0.00000000E+00  0.00000000E+00
  0.00000000E+00  0.00000000E+00  0.00000000E+00
  0.00000000E+00  0.00000000E+00  0.00000000E+00
  0.00000000E+00  0.00000000E+00  0.00000000E+00
  0.00000000E+00  0.00000000E+00  0.00000000E+00
  0.00000000E+00  0.00000000E+00  0.00000000E+00
  0.00000000E+00  0.00000000E+00  0.00000000E+00
  0.00000000E+00  0.00000000E+00  0.00000000E+00
  0.00000000E+00  0.00000000E+00  0.00000000E+00
  0.00000000E+00  0.00000000E+00  0.00000000E+00
  0.00000000E+00  0.00000000E+00  0.00000000E+00
  0.00000000E+00  0.00000000E+00  0.00000000E+00
  0.00000000E+00  0.00000000E+00  0.00000000E+00
  0.00000000E+00  0.00000000E+00  0.00000000E+00
  0.00000000E+00  0.00000000E+00  0.00000000E+00
  0.00000000E+00  0.00000000E+00  0.00000000E+00
  0.00000000E+00  0.00000000E+00  0.00000000E+00
  0.00000000E+00  0.00000000E+00  0.00000000E+00
  0.00000000E+00  0.00000000E+00  0.00000000E+00
  0.00000000E+00  0.00000000E+00  0.00000000E+00
  0.00000000E+00  0.00000000E+00  0.00000000E+00
  0.00000000E+00  0.00000000E+00  0.00000000E+00
  0.00000000E+00  0.00000000E+00  0.00000000E+00
  0.00000000E+00  0.00000000E+00  0.00000000E+00
  0.00000000E+00  0.00000000E+00  0.00000000E+00
  0.00000000E+00  0.00000000E+00  0.00000000E+00
  0.00000000E+00  0.00000000E+00  0.00000000E+00
  0.00000000E+00  0.00000000E+00  0.00000000E+00
  0.00000000E+00  0.00000000E+00  0.00000000E+00
  0.00000000E+00  0.00000000E+00  0.00000000E+00
  0.00000000E+00  0.00000000E+00  0.00000000E+00
  0.00000000E+00  0.00000000E+00  0.00000000E+00
  0.00000000E+00  0.00000000E+00  0.00000000E+00
  0.00000000E+00  0.00000000E+00  0.00000000E+00
  0.00000000E+00  0.00000000E+00  0.00000000E+00
  0.00000000E+00  0.00000000E+00  0.00000000E+00
  0.00000000E+00  0.00000000E+00  0.00000000E+00
