K2 V8 Zn1 O19                           
    1.000000000000000     
    11.5984911136299704    0.0000000000000000   -0.0223675279883853
     0.0000000000000000    3.8038154157442339    0.0000000000000000
     0.0066009367326038    0.0000000000000000    9.9424714421395475
   Zn   K    V    O 
     1     2     8    19
Direct
  0.4278460145572219  0.0000000000000000  0.9331292703094839
  0.4228510805138303  0.0000000000000000  0.5240470654893172
  0.0706746907196439  0.5000000000000000  0.4752221956781374
  0.0687573406551690  0.0000000000000000  0.8327438918684222
  0.9372348155926981  0.0000000000000000  0.1480086423958108
  0.5847119964932125  0.5000000000000000  0.7905484642511696
  0.4305363494960787  0.5000000000000000  0.1780687363559796
  0.7609266916116466  0.0000000000000000  0.9141640400783250
  0.2288972802593420  0.0000000000000000  0.1582650203135813
  0.2617677009254674  0.5000000000000000  0.8007623486242335
  0.7301903968850215  0.5000000000000000  0.1775389996813389
  0.5964255899865647  0.0000000000000000  0.8482969216752460
  0.4036752374063718  0.0000000000000000  0.1335005026198139
  0.1036703489699532  0.5000000000000000  0.8589748711443183
  0.8972635016365512  0.5000000000000000  0.1277175111478887
  0.9074581634209286  0.0000000000000000  0.8944770654306445
  0.0762611826633907  0.0000000000000000  0.0797217399426504
  0.4267072814121567  0.5000000000000000  0.8681288015885166
  0.5698092203780847  0.5000000000000000  0.1158377190619721
  0.2514863500791457  0.0000000000000000  0.8617868737117886
  0.7550620225611756  0.0000000000000000  0.1094031922005125
  0.7336150498331245  0.5000000000000000  0.8838746311037528
  0.2690829480658405  0.5000000000000000  0.1162601608307401
  0.0467245042187295  0.0000000000000000  0.6691540434136645
  0.9565299360197430  0.0000000000000000  0.3094449798821911
  0.5768637889082083  0.5000000000000000  0.6265829608375115
  0.4343798231125266  0.5000000000000000  0.3408797276120785
  0.2074391178983334  0.0000000000000000  0.3208549612827470
  0.2751952508243714  0.5000000000000000  0.6350764509172410
  0.7232680391811716  0.5000000000000000  0.3389189512916552
 
  0.00000000E+00  0.00000000E+00  0.00000000E+00
  0.00000000E+00  0.00000000E+00  0.00000000E+00
  0.00000000E+00  0.00000000E+00  0.00000000E+00
  0.00000000E+00  0.00000000E+00  0.00000000E+00
  0.00000000E+00  0.00000000E+00  0.00000000E+00
  0.00000000E+00  0.00000000E+00  0.00000000E+00
  0.00000000E+00  0.00000000E+00  0.00000000E+00
  0.00000000E+00  0.00000000E+00  0.00000000E+00
  0.00000000E+00  0.00000000E+00  0.00000000E+00
  0.00000000E+00  0.00000000E+00  0.00000000E+00
  0.00000000E+00  0.00000000E+00  0.00000000E+00
  0.00000000E+00  0.00000000E+00  0.00000000E+00
  0.00000000E+00  0.00000000E+00  0.00000000E+00
  0.00000000E+00  0.00000000E+00  0.00000000E+00
  0.00000000E+00  0.00000000E+00  0.00000000E+00
  0.00000000E+00  0.00000000E+00  0.00000000E+00
  0.00000000E+00  0.00000000E+00  0.00000000E+00
  0.00000000E+00  0.00000000E+00  0.00000000E+00
  0.00000000E+00  0.00000000E+00  0.00000000E+00
  0.00000000E+00  0.00000000E+00  0.00000000E+00
  0.00000000E+00  0.00000000E+00  0.00000000E+00
  0.00000000E+00  0.00000000E+00  0.00000000E+00
  0.00000000E+00  0.00000000E+00  0.00000000E+00
  0.00000000E+00  0.00000000E+00  0.00000000E+00
  0.00000000E+00  0.00000000E+00  0.00000000E+00
  0.00000000E+00  0.00000000E+00  0.00000000E+00
  0.00000000E+00  0.00000000E+00  0.00000000E+00
  0.00000000E+00  0.00000000E+00  0.00000000E+00
  0.00000000E+00  0.00000000E+00  0.00000000E+00
  0.00000000E+00  0.00000000E+00  0.00000000E+00
