Na2 Co96 S8                             
   1.00000000000000     
    10.0571076808180369    0.0000000000000000    0.0000000000000006
     2.5142769202045105    8.9261415523968921   -2.3880814800645740
     0.0000000000000000    0.0000000000000000   29.8195858510089984
   Na   Co   S 
     2    96     8
Selective dynamics
Direct
 -0.0101176373058660  0.1710505591723606  0.7740554148319118   T   T   T
  0.3262671324758611  0.1198371529758403  0.8072940976350650   T   T   T
  0.1319444444444429  0.4722222222222214  0.3388888888888886   F   F   F
  0.1319444444444429  0.9722222222222214  0.3388888888888886   F   F   F
  0.3819444444444429  0.4722222222222214  0.3388888888888886   F   F   F
  0.3819444444444429  0.9722222222222214  0.3388888888888886   F   F   F
  0.6319444444444429  0.4722222222222214  0.3388888888888886   F   F   F
  0.6319444444444429  0.9722222222222214  0.3388888888888886   F   F   F
  0.8819444444444429  0.4722222222222214  0.3388888888888886   F   F   F
  0.8819444444444429  0.9722222222222214  0.3388888888888886   F   F   F
  0.2152777777777786  0.1388888888888928  0.4055555555555586   F   F   F
  0.2152777777777786  0.6388888888888857  0.4055555555555586   F   F   F
  0.4652777777777786  0.1388888888888928  0.4055555555555586   F   F   F
  0.4652777777777786  0.6388888888888857  0.4055555555555586   F   F   F
  0.7152777777777786  0.1388888888888928  0.4055555555555586   F   F   F
  0.7152777777777786  0.6388888888888857  0.4055555555555586   F   F   F
  0.9652777777777786  0.1388888888888928  0.4055555555555586   F   F   F
  0.9652777777777786  0.6388888888888857  0.4055555555555586   F   F   F
  0.0486111111111143  0.3055555555555571  0.4722222222222214   F   F   F
  0.0486111111111143  0.8055555555555571  0.4722222222222214   F   F   F
  0.2986111111111143  0.3055555555555571  0.4722222222222214   F   F   F
  0.2986111111111143  0.8055555555555571  0.4722222222222214   F   F   F
  0.5486111111111143  0.3055555555555571  0.4722222222222214   F   F   F
  0.5486111111111143  0.8055555555555571  0.4722222222222214   F   F   F
  0.7986111111111143  0.3055555555555571  0.4722222222222214   F   F   F
  0.7986111111111143  0.8055555555555571  0.4722222222222214   F   F   F
  0.0347222222222214  0.3611111111111143  0.3944444444444457   F   F   F
  0.0347222222222214  0.8611111111111143  0.3944444444444457   F   F   F
  0.2847222222222214  0.3611111111111143  0.3944444444444457   F   F   F
  0.2847222222222214  0.8611111111111143  0.3944444444444457   F   F   F
  0.5347222222222214  0.3611111111111143  0.3944444444444457   F   F   F
  0.5347222222222214  0.8611111111111143  0.3944444444444457   F   F   F
  0.7847222222222214  0.3611111111111143  0.3944444444444457   F   F   F
  0.7847222222222214  0.8611111111111143  0.3944444444444457   F   F   F
  0.1180555555555571  0.0277777777777786  0.4611111111111086   F   F   F
  0.1180555555555571  0.5277777777777786  0.4611111111111086   F   F   F
  0.3680555555555571  0.0277777777777786  0.4611111111111086   F   F   F
  0.3680555555555571  0.5277777777777786  0.4611111111111086   F   F   F
  0.6180555555555571  0.0277777777777786  0.4611111111111086   F   F   F
  0.6180555555555571  0.5277777777777786  0.4611111111111086   F   F   F
  0.8680555555555571  0.0277777777777786  0.4611111111111086   F   F   F
  0.8680555555555571  0.5277777777777786  0.4611111111111086   F   F   F
  0.2013888888888857  0.1944444444444429  0.3277777777777757   F   F   F
  0.2013888888888857  0.6944444444444429  0.3277777777777757   F   F   F
  0.4513888888888857  0.1944444444444429  0.3277777777777757   F   F   F
  0.4513888888888857  0.6944444444444429  0.3277777777777757   F   F   F
  0.7013888888888857  0.1944444444444429  0.3277777777777757   F   F   F
  0.7013888888888857  0.6944444444444429  0.3277777777777757   F   F   F
  0.9513888888888857  0.1944444444444429  0.3277777777777757   F   F   F
  0.9513888888888857  0.6944444444444429  0.3277777777777757   F   F   F
  0.1319444444444429  0.4722222222222214  0.5388888888888914   F   F   F
  0.1319444444444429  0.9722222222222214  0.5388888888888914   F   F   F
  0.3819444444444429  0.4722222222222214  0.5388888888888914   F   F   F
  0.3819444444444429  0.9722222222222214  0.5388888888888914   F   F   F
  0.6319444444444429  0.4722222222222214  0.5388888888888914   F   F   F
  0.6319444444444429  0.9722222222222214  0.5388888888888914   F   F   F
  0.8819444444444429  0.4722222222222214  0.5388888888888914   F   F   F
  0.8819444444444429  0.9722222222222214  0.5388888888888914   F   F   F
  0.2153821830657524  0.1375688894443297  0.6058323974973259   T   T   T
  0.2186998502333131  0.6405157551160892  0.6078472032648234   T   T   T
  0.4634151298597766  0.1369492926459387  0.6057736986375354   T   T   T
  0.4661820916933396  0.6369573658143290  0.6044808337376044   T   T   T
  0.7150475607454394  0.1346531875496530  0.6033504723704957   T   T   T
  0.7154632710346579  0.6393628813394474  0.6035318657019209   T   T   T
  0.9695703569694937  0.1370979193972616  0.6063822449714455   T   T   T
  0.9669840842668984  0.6449025078795315  0.6057169640989237   T   T   T
  0.0383972470454124  0.3136025151912795  0.6763288925304571   T   T   T
  0.0498816517066304  0.8079168720878795  0.6782632983391468   T   T   T
  0.3027092336599584  0.3071112814171478  0.6702384346126939   T   T   T
  0.3098486353348933  0.7935577817088703  0.6816168362948981   T   T   T
  0.5501584996002690  0.2958171999411701  0.6682708935924571   T   T   T
  0.5544249753378652  0.7955990261382538  0.6704931656881625   T   T   T
  0.7943480742805225  0.2922012094711714  0.6686814366668622   T   T   T
  0.7896709234629428  0.8045217650962838  0.6710593485524075   T   T   T
  0.0347222222222214  0.3611111111111143  0.5944444444444414   F   F   F
  0.0347222222222214  0.8611111111111143  0.5944444444444414   F   F   F
  0.2847222222222214  0.3611111111111143  0.5944444444444414   F   F   F
  0.2847222222222214  0.8611111111111143  0.5944444444444414   F   F   F
  0.5347222222222214  0.3611111111111143  0.5944444444444414   F   F   F
  0.5347222222222214  0.8611111111111143  0.5944444444444414   F   F   F
  0.7847222222222214  0.3611111111111143  0.5944444444444414   F   F   F
  0.7847222222222214  0.8611111111111143  0.5944444444444414   F   F   F
  0.1212963614619402  0.0227384093960130  0.6618027948333883   T   T   T
  0.1253863580944030  0.5232032217097633  0.6581638281286585   T   T   T
  0.3720630769846860  0.0144213435239833  0.6615587972876462   T   T   T
  0.3775131828286727  0.5198824889386164  0.6619305807140827   T   T   T
  0.6135429188221647  0.0300931440820713  0.6586842717366281   T   T   T
  0.6254356260875550  0.5212203748858953  0.6566198317833396   T   T   T
  0.8654481178380002  0.0271671413722029  0.6609782553100153   T   T   T
  0.8727354643375158  0.5317734577093464  0.6575159166453508   T   T   T
  0.2013888888888857  0.1944444444444429  0.5277777777777786   F   F   F
  0.2013888888888857  0.6944444444444429  0.5277777777777786   F   F   F
  0.4513888888888857  0.1944444444444429  0.5277777777777786   F   F   F
  0.4513888888888857  0.6944444444444429  0.5277777777777786   F   F   F
  0.7013888888888857  0.1944444444444429  0.5277777777777786   F   F   F
  0.7013888888888857  0.6944444444444429  0.5277777777777786   F   F   F
  0.9513888888888857  0.1944444444444429  0.5277777777777786   F   F   F
  0.9513888888888857  0.6944444444444429  0.5277777777777786   F   F   F
  0.4911205045052174 -0.3319946435630341  0.7160541757007080   T   T   T
  0.2123059977484489  0.1983140524070723  0.7129505809064606   T   T   T
  0.0793514566803117  0.2371334855189218  0.8601462854453441   T   T   T
  0.3009566151096673  0.4351390256123476  0.8468287834414654   T   T   T
  0.8551229469259248 -0.0428717305011384  0.7263952229099748   T   T   T
  0.1631888057790568 -0.1002180411490743  0.7428394341105823   T   T   T
  0.1073936221331282  0.4400839783728380  0.8610731804508481   T   T   T
  0.8578185695328134  0.4612341005953535  0.7211659368002588   T   T   T
 
  0.00000000E+00  0.00000000E+00  0.00000000E+00
  0.00000000E+00  0.00000000E+00  0.00000000E+00
  0.00000000E+00  0.00000000E+00  0.00000000E+00
  0.00000000E+00  0.00000000E+00  0.00000000E+00
  0.00000000E+00  0.00000000E+00  0.00000000E+00
  0.00000000E+00  0.00000000E+00  0.00000000E+00
  0.00000000E+00  0.00000000E+00  0.00000000E+00
  0.00000000E+00  0.00000000E+00  0.00000000E+00
  0.00000000E+00  0.00000000E+00  0.00000000E+00
  0.00000000E+00  0.00000000E+00  0.00000000E+00
  0.00000000E+00  0.00000000E+00  0.00000000E+00
  0.00000000E+00  0.00000000E+00  0.00000000E+00
  0.00000000E+00  0.00000000E+00  0.00000000E+00
  0.00000000E+00  0.00000000E+00  0.00000000E+00
  0.00000000E+00  0.00000000E+00  0.00000000E+00
  0.00000000E+00  0.00000000E+00  0.00000000E+00
  0.00000000E+00  0.00000000E+00  0.00000000E+00
  0.00000000E+00  0.00000000E+00  0.00000000E+00
  0.00000000E+00  0.00000000E+00  0.00000000E+00
  0.00000000E+00  0.00000000E+00  0.00000000E+00
  0.00000000E+00  0.00000000E+00  0.00000000E+00
  0.00000000E+00  0.00000000E+00  0.00000000E+00
  0.00000000E+00  0.00000000E+00  0.00000000E+00
  0.00000000E+00  0.00000000E+00  0.00000000E+00
  0.00000000E+00  0.00000000E+00  0.00000000E+00
  0.00000000E+00  0.00000000E+00  0.00000000E+00
  0.00000000E+00  0.00000000E+00  0.00000000E+00
  0.00000000E+00  0.00000000E+00  0.00000000E+00
  0.00000000E+00  0.00000000E+00  0.00000000E+00
  0.00000000E+00  0.00000000E+00  0.00000000E+00
  0.00000000E+00  0.00000000E+00  0.00000000E+00
  0.00000000E+00  0.00000000E+00  0.00000000E+00
  0.00000000E+00  0.00000000E+00  0.00000000E+00
  0.00000000E+00  0.00000000E+00  0.00000000E+00
  0.00000000E+00  0.00000000E+00  0.00000000E+00
  0.00000000E+00  0.00000000E+00  0.00000000E+00
  0.00000000E+00  0.00000000E+00  0.00000000E+00
  0.00000000E+00  0.00000000E+00  0.00000000E+00
  0.00000000E+00  0.00000000E+00  0.00000000E+00
  0.00000000E+00  0.00000000E+00  0.00000000E+00
  0.00000000E+00  0.00000000E+00  0.00000000E+00
  0.00000000E+00  0.00000000E+00  0.00000000E+00
  0.00000000E+00  0.00000000E+00  0.00000000E+00
  0.00000000E+00  0.00000000E+00  0.00000000E+00
  0.00000000E+00  0.00000000E+00  0.00000000E+00
  0.00000000E+00  0.00000000E+00  0.00000000E+00
  0.00000000E+00  0.00000000E+00  0.00000000E+00
  0.00000000E+00  0.00000000E+00  0.00000000E+00
  0.00000000E+00  0.00000000E+00  0.00000000E+00
  0.00000000E+00  0.00000000E+00  0.00000000E+00
  0.00000000E+00  0.00000000E+00  0.00000000E+00
  0.00000000E+00  0.00000000E+00  0.00000000E+00
  0.00000000E+00  0.00000000E+00  0.00000000E+00
  0.00000000E+00  0.00000000E+00  0.00000000E+00
  0.00000000E+00  0.00000000E+00  0.00000000E+00
  0.00000000E+00  0.00000000E+00  0.00000000E+00
  0.00000000E+00  0.00000000E+00  0.00000000E+00
  0.00000000E+00  0.00000000E+00  0.00000000E+00
  0.00000000E+00  0.00000000E+00  0.00000000E+00
  0.00000000E+00  0.00000000E+00  0.00000000E+00
  0.00000000E+00  0.00000000E+00  0.00000000E+00
  0.00000000E+00  0.00000000E+00  0.00000000E+00
  0.00000000E+00  0.00000000E+00  0.00000000E+00
  0.00000000E+00  0.00000000E+00  0.00000000E+00
  0.00000000E+00  0.00000000E+00  0.00000000E+00
  0.00000000E+00  0.00000000E+00  0.00000000E+00
  0.00000000E+00  0.00000000E+00  0.00000000E+00
  0.00000000E+00  0.00000000E+00  0.00000000E+00
  0.00000000E+00  0.00000000E+00  0.00000000E+00
  0.00000000E+00  0.00000000E+00  0.00000000E+00
  0.00000000E+00  0.00000000E+00  0.00000000E+00
  0.00000000E+00  0.00000000E+00  0.00000000E+00
  0.00000000E+00  0.00000000E+00  0.00000000E+00
  0.00000000E+00  0.00000000E+00  0.00000000E+00
  0.00000000E+00  0.00000000E+00  0.00000000E+00
  0.00000000E+00  0.00000000E+00  0.00000000E+00
  0.00000000E+00  0.00000000E+00  0.00000000E+00
  0.00000000E+00  0.00000000E+00  0.00000000E+00
  0.00000000E+00  0.00000000E+00  0.00000000E+00
  0.00000000E+00  0.00000000E+00  0.00000000E+00
  0.00000000E+00  0.00000000E+00  0.00000000E+00
  0.00000000E+00  0.00000000E+00  0.00000000E+00
  0.00000000E+00  0.00000000E+00  0.00000000E+00
  0.00000000E+00  0.00000000E+00  0.00000000E+00
  0.00000000E+00  0.00000000E+00  0.00000000E+00
  0.00000000E+00  0.00000000E+00  0.00000000E+00
  0.00000000E+00  0.00000000E+00  0.00000000E+00
  0.00000000E+00  0.00000000E+00  0.00000000E+00
  0.00000000E+00  0.00000000E+00  0.00000000E+00
  0.00000000E+00  0.00000000E+00  0.00000000E+00
  0.00000000E+00  0.00000000E+00  0.00000000E+00
  0.00000000E+00  0.00000000E+00  0.00000000E+00
  0.00000000E+00  0.00000000E+00  0.00000000E+00
  0.00000000E+00  0.00000000E+00  0.00000000E+00
  0.00000000E+00  0.00000000E+00  0.00000000E+00
  0.00000000E+00  0.00000000E+00  0.00000000E+00
  0.00000000E+00  0.00000000E+00  0.00000000E+00
  0.00000000E+00  0.00000000E+00  0.00000000E+00
  0.00000000E+00  0.00000000E+00  0.00000000E+00
  0.00000000E+00  0.00000000E+00  0.00000000E+00
  0.00000000E+00  0.00000000E+00  0.00000000E+00
  0.00000000E+00  0.00000000E+00  0.00000000E+00
  0.00000000E+00  0.00000000E+00  0.00000000E+00
  0.00000000E+00  0.00000000E+00  0.00000000E+00
  0.00000000E+00  0.00000000E+00  0.00000000E+00
  0.00000000E+00  0.00000000E+00  0.00000000E+00
