Na2 Mn48 Co48 S2                        
   1.00000000000000     
     9.9475087679858625    0.0000000000000000   -0.0642715153651900
     4.9334962509818583    8.6928626692229010   -0.1434234665729407
     0.0000000000000000    0.0000000000000000   24.4783711218720370
   Na   Mn   Co   S 
     2    48    48     2
Selective dynamics
Direct
  0.2798679344670159  0.7469197630721810  0.8180678172327542   T   T   T
  0.3070441161298569  0.2533445586474009  0.8114679489585164   T   T   T
  0.1251009893290203  0.3747980213419595  0.3750504946645137   F   F   F
  0.1251009893290203  0.8747980213419595  0.3750504946645137   F   F   F
  0.6251009893290203  0.3747980213419595  0.3750504946645137   F   F   F
  0.6251009893290203  0.8747980213419595  0.3750504946645137   F   F   F
  0.2917676559956845  0.0414646880086238  0.4583838279978423   F   F   F
  0.2917676559956845  0.5414646880086238  0.4583838279978423   F   F   F
  0.7917676559956845  0.0414646880086238  0.4583838279978423   F   F   F
  0.7917676559956845  0.5414646880086238  0.4583838279978423   F   F   F
  0.4584343226623560  0.2081313546752881  0.2917171613311780   F   F   F
  0.4584343226623560  0.7081313546752881  0.2917171613311780   F   F   F
  0.9584343226623560  0.2081313546752881  0.2917171613311780   F   F   F
  0.9584343226623560  0.7081313546752881  0.2917171613311780   F   F   F
  0.3748990106709797  0.1252019786580405  0.3749495053354863   F   F   F
  0.3748990106709797  0.6252019786580405  0.3749495053354863   F   F   F
  0.8748990106709797  0.1252019786580405  0.3749495053354863   F   F   F
  0.8748990106709797  0.6252019786580405  0.3749495053354863   F   F   F
  0.0415656773376440  0.2918686453247119  0.4582828386688220   F   F   F
  0.0415656773376440  0.7918686453247119  0.4582828386688220   F   F   F
  0.5415656773376440  0.2918686453247119  0.4582828386688220   F   F   F
  0.5415656773376440  0.7918686453247119  0.4582828386688220   F   F   F
  0.2082323440043155  0.4585353119913762  0.2916161720021577   F   F   F
  0.2082323440043155  0.9585353119913762  0.2916161720021577   F   F   F
  0.7082323440043155  0.4585353119913762  0.2916161720021577   F   F   F
  0.7082323440043155  0.9585353119913762  0.2916161720021577   F   F   F
  0.1307622741651765  0.3743184336314223  0.6221136004583828   T   T   T
  0.1315192015436249  0.8748254782260302  0.6228882730994902   T   T   T
  0.6235476151600114  0.3811753459420912  0.6234035336864931   T   T   T
  0.6313716007210991  0.8717253396402315  0.6268458406339636   T   T   T
  0.2906702272653012  0.0379649056343529  0.7088998461339634   T   T   T
  0.2910083437271630  0.5381286161437140  0.7180300096268283   T   T   T
  0.7883151254023243  0.0380443210692416  0.7155247541234272   T   T   T
  0.7876182643144971  0.5384188611834938  0.7134829889576666   T   T   T
  0.4584343226623560  0.2081313546752881  0.5417171613311780   F   F   F
  0.4584343226623560  0.7081313546752881  0.5417171613311780   F   F   F
  0.9584343226623560  0.2081313546752881  0.5417171613311780   F   F   F
  0.9584343226623560  0.7081313546752881  0.5417171613311780   F   F   F
  0.3719687166382906  0.1295949512100929  0.6243163039262846   T   T   T
  0.3792265474024646  0.6277036662832481  0.6237428392638114   T   T   T
  0.8761291012355941  0.1297157743092349  0.6225060648522129   T   T   T
  0.8736315914921796  0.6313202309256125  0.6232981439716901   T   T   T
  0.0406099396293097  0.2828500035249373  0.7115708532099911   T   T   T
  0.0485581033546609  0.7852065557772379  0.7118592181472476   T   T   T
  0.5346470856854877  0.2898944770952718  0.7098125480141503   T   T   T
  0.5365069303326202  0.7925218550381962  0.7106829686263388   T   T   T
  0.2082323440043155  0.4585353119913762  0.5416161720021577   F   F   F
  0.2082323440043155  0.9585353119913762  0.5416161720021577   F   F   F
  0.7082323440043155  0.4585353119913762  0.5416161720021577   F   F   F
  0.7082323440043155  0.9585353119913762  0.5416161720021577   F   F   F
  0.4583946692454859  0.4582106615090282  0.2916973346227394   F   F   F
  0.4583946692454859  0.9582106615090282  0.2916973346227394   F   F   F
  0.9583946692454859  0.4582106615090282  0.2916973346227394   F   F   F
  0.9583946692454859  0.9582106615090282  0.2916973346227394   F   F   F
  0.1250613359121502  0.1248773281756925  0.3750306679560751   F   F   F
  0.1250613359121502  0.6248773281756925  0.3750306679560751   F   F   F
  0.6250613359121502  0.1248773281756925  0.3750306679560751   F   F   F
  0.6250613359121502  0.6248773281756925  0.3750306679560751   F   F   F
  0.2917280025788216  0.2915439948423639  0.4583640012894108   F   F   F
  0.2917280025788216  0.7915439948423639  0.4583640012894108   F   F   F
  0.7917280025788216  0.2915439948423639  0.4583640012894108   F   F   F
  0.7917280025788216  0.7915439948423639  0.4583640012894108   F   F   F
  0.3749386640878498  0.3751226718243075  0.3749693320439249   F   F   F
  0.3749386640878498  0.8751226718243075  0.3749693320439249   F   F   F
  0.8749386640878498  0.3751226718243075  0.3749693320439249   F   F   F
  0.8749386640878498  0.8751226718243075  0.3749693320439249   F   F   F
  0.0416053307545141  0.0417893384909718  0.4583026653772535   F   F   F
  0.0416053307545141  0.5417893384909718  0.4583026653772535   F   F   F
  0.5416053307545141  0.0417893384909718  0.4583026653772535   F   F   F
  0.5416053307545141  0.5417893384909718  0.4583026653772535   F   F   F
  0.2082719974211784  0.2084560051576361  0.2916359987105892   F   F   F
  0.2082719974211784  0.7084560051576361  0.2916359987105892   F   F   F
  0.7082719974211784  0.2084560051576361  0.2916359987105892   F   F   F
  0.7082719974211784  0.7084560051576361  0.2916359987105892   F   F   F
  0.4583946692454859  0.4582106615090282  0.5416973346227394   F   F   F
  0.4583946692454859  0.9582106615090282  0.5416973346227394   F   F   F
  0.9583946692454859  0.4582106615090282  0.5416973346227394   F   F   F
  0.9583946692454859  0.9582106615090282  0.5416973346227394   F   F   F
  0.1260335320482034  0.1246784414563408  0.6226045454146300   T   T   T
  0.1277316708952486  0.6268144059243513  0.6242407761146974   T   T   T
  0.6266848060833901  0.1269222466256900  0.6262489479557025   T   T   T
  0.6228512798402998  0.6244481989839192  0.6239026611838367   T   T   T
  0.2871791350383486  0.2889032080052563  0.7024037759465527   T   T   T
  0.2883632362479879  0.7906234529531592  0.7024323063181673   T   T   T
  0.7883528516055921  0.2857186688579395  0.7038348321173095   T   T   T
  0.7900465081761314  0.7890359895955498  0.7068551195714595   T   T   T
  0.3765522566198127  0.3825164251031068  0.6246215179311193   T   T   T
  0.3753190227459781  0.8762338718073505  0.6213938150860322   T   T   T
  0.8756047873499512  0.3776098489639091  0.6239533271938492   T   T   T
  0.8807198864444495  0.8779897925947951  0.6253191258217913   T   T   T
  0.0391258278987023  0.0331536774900639  0.7044131375033443   T   T   T
  0.0386077278747664  0.5338958339508200  0.7050125490413210   T   T   T
  0.5370470932031194  0.0418916712103569  0.7050763744445018   T   T   T
  0.5400357962950086  0.5403995419966476  0.7058367144879615   T   T   T
  0.2082719974211784  0.2084560051576361  0.5416359987105892   F   F   F
  0.2082719974211784  0.7084560051576361  0.5416359987105892   F   F   F
  0.7082719974211784  0.2084560051576361  0.5416359987105892   F   F   F
  0.7082719974211784  0.7084560051576361  0.5416359987105892   F   F   F
  0.4961369650939848  0.4462234306808060  0.7806268757515374   T   T   T
  0.0876803474617497  0.6245477176098160  0.7804873560718816   T   T   T
 
  0.00000000E+00  0.00000000E+00  0.00000000E+00
  0.00000000E+00  0.00000000E+00  0.00000000E+00
  0.00000000E+00  0.00000000E+00  0.00000000E+00
  0.00000000E+00  0.00000000E+00  0.00000000E+00
  0.00000000E+00  0.00000000E+00  0.00000000E+00
  0.00000000E+00  0.00000000E+00  0.00000000E+00
  0.00000000E+00  0.00000000E+00  0.00000000E+00
  0.00000000E+00  0.00000000E+00  0.00000000E+00
  0.00000000E+00  0.00000000E+00  0.00000000E+00
  0.00000000E+00  0.00000000E+00  0.00000000E+00
  0.00000000E+00  0.00000000E+00  0.00000000E+00
  0.00000000E+00  0.00000000E+00  0.00000000E+00
  0.00000000E+00  0.00000000E+00  0.00000000E+00
  0.00000000E+00  0.00000000E+00  0.00000000E+00
  0.00000000E+00  0.00000000E+00  0.00000000E+00
  0.00000000E+00  0.00000000E+00  0.00000000E+00
  0.00000000E+00  0.00000000E+00  0.00000000E+00
  0.00000000E+00  0.00000000E+00  0.00000000E+00
  0.00000000E+00  0.00000000E+00  0.00000000E+00
  0.00000000E+00  0.00000000E+00  0.00000000E+00
  0.00000000E+00  0.00000000E+00  0.00000000E+00
  0.00000000E+00  0.00000000E+00  0.00000000E+00
  0.00000000E+00  0.00000000E+00  0.00000000E+00
  0.00000000E+00  0.00000000E+00  0.00000000E+00
  0.00000000E+00  0.00000000E+00  0.00000000E+00
  0.00000000E+00  0.00000000E+00  0.00000000E+00
  0.00000000E+00  0.00000000E+00  0.00000000E+00
  0.00000000E+00  0.00000000E+00  0.00000000E+00
  0.00000000E+00  0.00000000E+00  0.00000000E+00
  0.00000000E+00  0.00000000E+00  0.00000000E+00
  0.00000000E+00  0.00000000E+00  0.00000000E+00
  0.00000000E+00  0.00000000E+00  0.00000000E+00
  0.00000000E+00  0.00000000E+00  0.00000000E+00
  0.00000000E+00  0.00000000E+00  0.00000000E+00
  0.00000000E+00  0.00000000E+00  0.00000000E+00
  0.00000000E+00  0.00000000E+00  0.00000000E+00
  0.00000000E+00  0.00000000E+00  0.00000000E+00
  0.00000000E+00  0.00000000E+00  0.00000000E+00
  0.00000000E+00  0.00000000E+00  0.00000000E+00
  0.00000000E+00  0.00000000E+00  0.00000000E+00
  0.00000000E+00  0.00000000E+00  0.00000000E+00
  0.00000000E+00  0.00000000E+00  0.00000000E+00
  0.00000000E+00  0.00000000E+00  0.00000000E+00
  0.00000000E+00  0.00000000E+00  0.00000000E+00
  0.00000000E+00  0.00000000E+00  0.00000000E+00
  0.00000000E+00  0.00000000E+00  0.00000000E+00
  0.00000000E+00  0.00000000E+00  0.00000000E+00
  0.00000000E+00  0.00000000E+00  0.00000000E+00
  0.00000000E+00  0.00000000E+00  0.00000000E+00
  0.00000000E+00  0.00000000E+00  0.00000000E+00
  0.00000000E+00  0.00000000E+00  0.00000000E+00
  0.00000000E+00  0.00000000E+00  0.00000000E+00
  0.00000000E+00  0.00000000E+00  0.00000000E+00
  0.00000000E+00  0.00000000E+00  0.00000000E+00
  0.00000000E+00  0.00000000E+00  0.00000000E+00
  0.00000000E+00  0.00000000E+00  0.00000000E+00
  0.00000000E+00  0.00000000E+00  0.00000000E+00
  0.00000000E+00  0.00000000E+00  0.00000000E+00
  0.00000000E+00  0.00000000E+00  0.00000000E+00
  0.00000000E+00  0.00000000E+00  0.00000000E+00
  0.00000000E+00  0.00000000E+00  0.00000000E+00
  0.00000000E+00  0.00000000E+00  0.00000000E+00
  0.00000000E+00  0.00000000E+00  0.00000000E+00
  0.00000000E+00  0.00000000E+00  0.00000000E+00
  0.00000000E+00  0.00000000E+00  0.00000000E+00
  0.00000000E+00  0.00000000E+00  0.00000000E+00
  0.00000000E+00  0.00000000E+00  0.00000000E+00
  0.00000000E+00  0.00000000E+00  0.00000000E+00
  0.00000000E+00  0.00000000E+00  0.00000000E+00
  0.00000000E+00  0.00000000E+00  0.00000000E+00
  0.00000000E+00  0.00000000E+00  0.00000000E+00
  0.00000000E+00  0.00000000E+00  0.00000000E+00
  0.00000000E+00  0.00000000E+00  0.00000000E+00
  0.00000000E+00  0.00000000E+00  0.00000000E+00
  0.00000000E+00  0.00000000E+00  0.00000000E+00
  0.00000000E+00  0.00000000E+00  0.00000000E+00
  0.00000000E+00  0.00000000E+00  0.00000000E+00
  0.00000000E+00  0.00000000E+00  0.00000000E+00
  0.00000000E+00  0.00000000E+00  0.00000000E+00
  0.00000000E+00  0.00000000E+00  0.00000000E+00
  0.00000000E+00  0.00000000E+00  0.00000000E+00
  0.00000000E+00  0.00000000E+00  0.00000000E+00
  0.00000000E+00  0.00000000E+00  0.00000000E+00
  0.00000000E+00  0.00000000E+00  0.00000000E+00
  0.00000000E+00  0.00000000E+00  0.00000000E+00
  0.00000000E+00  0.00000000E+00  0.00000000E+00
  0.00000000E+00  0.00000000E+00  0.00000000E+00
  0.00000000E+00  0.00000000E+00  0.00000000E+00
  0.00000000E+00  0.00000000E+00  0.00000000E+00
  0.00000000E+00  0.00000000E+00  0.00000000E+00
  0.00000000E+00  0.00000000E+00  0.00000000E+00
  0.00000000E+00  0.00000000E+00  0.00000000E+00
  0.00000000E+00  0.00000000E+00  0.00000000E+00
  0.00000000E+00  0.00000000E+00  0.00000000E+00
  0.00000000E+00  0.00000000E+00  0.00000000E+00
  0.00000000E+00  0.00000000E+00  0.00000000E+00
  0.00000000E+00  0.00000000E+00  0.00000000E+00
  0.00000000E+00  0.00000000E+00  0.00000000E+00
  0.00000000E+00  0.00000000E+00  0.00000000E+00
  0.00000000E+00  0.00000000E+00  0.00000000E+00
