Na2 Cu96 S8                             
   1.00000000000000     
    10.3549104023591543    0.0000000000000000    0.0000000000000006
     5.1774552011795789    8.9676154623547681    0.0000000000000006
     0.0000000000000000    0.0000000000000000   25.3642468180175804
   Na   Cu   S 
     2    96     8
Selective dynamics
Direct
  0.8285873351960534  0.2031920546054130  0.9107112535028866   T   T   T
  0.2008500371379577  0.1505909838025195  0.9403183567701874   T   T   T
  0.0000000000000000  0.0000000000000000  0.4583333333333357   F   F   F
  0.0000000000000000  0.5000000000000000  0.4583333333333357   F   F   F
  0.5000000000000000  0.0000000000000000  0.4583333333333357   F   F   F
  0.5000000000000000  0.5000000000000000  0.4583333333333357   F   F   F
  0.1666666666666643  0.1666666666666643  0.2916666666666643   F   F   F
  0.1666666666666643  0.6666666666666643  0.2916666666666643   F   F   F
  0.6666666666666643  0.1666666666666643  0.2916666666666643   F   F   F
  0.6666666666666643  0.6666666666666643  0.2916666666666643   F   F   F
  0.3333333333333357  0.3333333333333357  0.3750000000000000   F   F   F
  0.3333333333333357  0.8333333333333357  0.3750000000000000   F   F   F
  0.8333333333333357  0.3333333333333357  0.3750000000000000   F   F   F
  0.8333333333333357  0.8333333333333357  0.3750000000000000   F   F   F
  0.4166666666666643  0.4166666666666643  0.2916666666666643   F   F   F
  0.4166666666666643  0.9166666666666643  0.2916666666666643   F   F   F
  0.9166666666666643  0.4166666666666643  0.2916666666666643   F   F   F
  0.9166666666666643  0.9166666666666643  0.2916666666666643   F   F   F
  0.0833333333333357  0.0833333333333357  0.3750000000000000   F   F   F
  0.0833333333333357  0.5833333333333357  0.3750000000000000   F   F   F
  0.5833333333333357  0.0833333333333357  0.3750000000000000   F   F   F
  0.5833333333333357  0.5833333333333357  0.3750000000000000   F   F   F
  0.2500000000000000  0.2500000000000000  0.4583333333333357   F   F   F
  0.2500000000000000  0.7500000000000000  0.4583333333333357   F   F   F
  0.7500000000000000  0.2500000000000000  0.4583333333333357   F   F   F
  0.7500000000000000  0.7500000000000000  0.4583333333333357   F   F   F
  0.1666666666666643  0.4166666666666643  0.2916666666666643   F   F   F
  0.1666666666666643  0.9166666666666643  0.2916666666666643   F   F   F
  0.6666666666666643  0.4166666666666643  0.2916666666666643   F   F   F
  0.6666666666666643  0.9166666666666643  0.2916666666666643   F   F   F
  0.3333333333333357  0.0833333333333357  0.3750000000000000   F   F   F
  0.3333333333333357  0.5833333333333357  0.3750000000000000   F   F   F
  0.8333333333333357  0.0833333333333357  0.3750000000000000   F   F   F
  0.8333333333333357  0.5833333333333357  0.3750000000000000   F   F   F
  0.5000000000000000  0.2500000000000000  0.4583333333333357   F   F   F
  0.5000000000000000  0.7500000000000000  0.4583333333333357   F   F   F
  0.0000000000000000  0.2500000000000000  0.4583333333333357   F   F   F
  0.0000000000000000  0.7500000000000000  0.4583333333333357   F   F   F
  0.4166666666666643  0.1666666666666643  0.2916666666666643   F   F   F
  0.4166666666666643  0.6666666666666643  0.2916666666666643   F   F   F
  0.9166666666666643  0.1666666666666643  0.2916666666666643   F   F   F
  0.9166666666666643  0.6666666666666643  0.2916666666666643   F   F   F
  0.0833333333333357  0.3333333333333357  0.3750000000000000   F   F   F
  0.0833333333333357  0.8333333333333357  0.3750000000000000   F   F   F
  0.5833333333333357  0.3333333333333357  0.3750000000000000   F   F   F
  0.5833333333333357  0.8333333333333357  0.3750000000000000   F   F   F
  0.2500000000000000  0.5000000000000000  0.4583333333333357   F   F   F
  0.2500000000000000  0.0000000000000000  0.4583333333333357   F   F   F
  0.7500000000000000  0.5000000000000000  0.4583333333333357   F   F   F
  0.7500000000000000  0.0000000000000000  0.4583333333333357   F   F   F
 -0.0025568186026296 -0.0048301769503970  0.7120100429491075   T   T   T
  0.0018171342570558  0.5004947359233969  0.7083454244264948   T   T   T
  0.5023165584246317 -0.0001935332546523  0.7085110365069336   T   T   T
  0.5004282989420064  0.4940436166462053  0.7078479919110873   T   T   T
  0.1666666666666643  0.1666666666666643  0.5416666666666643   F   F   F
  0.1666666666666643  0.6666666666666643  0.5416666666666643   F   F   F
  0.6666666666666643  0.1666666666666643  0.5416666666666643   F   F   F
  0.6666666666666643  0.6666666666666643  0.5416666666666643   F   F   F
  0.3341248940973265  0.3324130797717995  0.6238693322650741   T   T   T
  0.3325721806387077  0.8332032977593840  0.6241250444058439   T   T   T
  0.8333306735600921  0.3328325751194932  0.6248203328156835   T   T   T
  0.8341346496874029  0.8329627244379656  0.6242659567721391   T   T   T
  0.4166666666666643  0.4166666666666643  0.5416666666666643   F   F   F
  0.4166666666666643  0.9166666666666643  0.5416666666666643   F   F   F
  0.9166666666666643  0.4166666666666643  0.5416666666666643   F   F   F
  0.9166666666666643  0.9166666666666643  0.5416666666666643   F   F   F
  0.0827019348445635  0.0835202912376752  0.6256638113707416   T   T   T
  0.0840670027226233  0.5825689043194585  0.6247192801933463   T   T   T
  0.5835221567840060  0.0830157259730596  0.6243593412349784   T   T   T
  0.5832790193575159  0.5830034344788906  0.6255830646270358   T   T   T
  0.2506479782141983  0.2513183755886781  0.7078513363394840   T   T   T
  0.2565675455055458  0.7353681425970592  0.7092369271976420   T   T   T
  0.7438453415314925  0.2419305295658060  0.7111835681550360   T   T   T
  0.7488938315395328  0.7517566834592238  0.7084076281388764   T   T   T
  0.1666666666666643  0.4166666666666643  0.5416666666666643   F   F   F
  0.1666666666666643  0.9166666666666643  0.5416666666666643   F   F   F
  0.6666666666666643  0.4166666666666643  0.5416666666666643   F   F   F
  0.6666666666666643  0.9166666666666643  0.5416666666666643   F   F   F
  0.3321158633906197  0.0825401398462131  0.6253270647739179   T   T   T
  0.3339794586119940  0.5831701483095828  0.6253796502076022   T   T   T
  0.8344654301692006  0.0828867999858254  0.6268431627648905   T   T   T
  0.8323903859389763  0.5828393841792394  0.6256124415233770   T   T   T
  0.4972219999028540  0.2464824424652369  0.7082884403185228   T   T   T
  0.4991245715411000  0.7517984638596467  0.7075148714147247   T   T   T
 -0.0005113378654406  0.2517752447563212  0.7117580784072940   T   T   T
 -0.0026716371379417  0.7460676049663066  0.7081552239335306   T   T   T
  0.4166666666666643  0.1666666666666643  0.5416666666666643   F   F   F
  0.4166666666666643  0.6666666666666643  0.5416666666666643   F   F   F
  0.9166666666666643  0.1666666666666643  0.5416666666666643   F   F   F
  0.9166666666666643  0.6666666666666643  0.5416666666666643   F   F   F
  0.0827238784491960  0.3313540730017654  0.6256207254703843   T   T   T
  0.0832832900162736  0.8339125822817149  0.6247880773200225   T   T   T
  0.5853226212881567  0.3311166740529209  0.6248836902247248   T   T   T
  0.5823140001864465  0.8333762413324499  0.6249752465635379   T   T   T
  0.2512514138574975  0.4943674095725911  0.7081854872058875   T   T   T
  0.2546999107232512  0.0059594600433986  0.7092722860616937   T   T   T
  0.7436811515071791  0.5096717794982903  0.7113564843050262   T   T   T
  0.7477614358946716 -0.0042180455384009  0.7080070682267310   T   T   T
  0.0749002932458641  0.8398756061216864  0.9153364301312498   T   T   T
  0.1844452105085518 -0.0939244015708161  0.7723418216159960   T   T   T
  0.9133877442805233  0.4065574030811294  0.9504845631760750   T   T   T
  0.1956351629405580  0.3648794939364706  0.8732799918661747   T   T   T
 -0.1233349330768028  0.9222881188477748  0.8803741895452314   T   T   T
  0.0764163497280843  0.9775298769763993  0.9717627000956747   T   T   T
  0.9762144673533488  0.4810616711720087  0.8871783882393363   T   T   T
  0.8183767999992315  0.3381317523529789  0.7750572872695447   T   T   T
 
  0.00000000E+00  0.00000000E+00  0.00000000E+00
  0.00000000E+00  0.00000000E+00  0.00000000E+00
  0.00000000E+00  0.00000000E+00  0.00000000E+00
  0.00000000E+00  0.00000000E+00  0.00000000E+00
  0.00000000E+00  0.00000000E+00  0.00000000E+00
  0.00000000E+00  0.00000000E+00  0.00000000E+00
  0.00000000E+00  0.00000000E+00  0.00000000E+00
  0.00000000E+00  0.00000000E+00  0.00000000E+00
  0.00000000E+00  0.00000000E+00  0.00000000E+00
  0.00000000E+00  0.00000000E+00  0.00000000E+00
  0.00000000E+00  0.00000000E+00  0.00000000E+00
  0.00000000E+00  0.00000000E+00  0.00000000E+00
  0.00000000E+00  0.00000000E+00  0.00000000E+00
  0.00000000E+00  0.00000000E+00  0.00000000E+00
  0.00000000E+00  0.00000000E+00  0.00000000E+00
  0.00000000E+00  0.00000000E+00  0.00000000E+00
  0.00000000E+00  0.00000000E+00  0.00000000E+00
  0.00000000E+00  0.00000000E+00  0.00000000E+00
  0.00000000E+00  0.00000000E+00  0.00000000E+00
  0.00000000E+00  0.00000000E+00  0.00000000E+00
  0.00000000E+00  0.00000000E+00  0.00000000E+00
  0.00000000E+00  0.00000000E+00  0.00000000E+00
  0.00000000E+00  0.00000000E+00  0.00000000E+00
  0.00000000E+00  0.00000000E+00  0.00000000E+00
  0.00000000E+00  0.00000000E+00  0.00000000E+00
  0.00000000E+00  0.00000000E+00  0.00000000E+00
  0.00000000E+00  0.00000000E+00  0.00000000E+00
  0.00000000E+00  0.00000000E+00  0.00000000E+00
  0.00000000E+00  0.00000000E+00  0.00000000E+00
  0.00000000E+00  0.00000000E+00  0.00000000E+00
  0.00000000E+00  0.00000000E+00  0.00000000E+00
  0.00000000E+00  0.00000000E+00  0.00000000E+00
  0.00000000E+00  0.00000000E+00  0.00000000E+00
  0.00000000E+00  0.00000000E+00  0.00000000E+00
  0.00000000E+00  0.00000000E+00  0.00000000E+00
  0.00000000E+00  0.00000000E+00  0.00000000E+00
  0.00000000E+00  0.00000000E+00  0.00000000E+00
  0.00000000E+00  0.00000000E+00  0.00000000E+00
  0.00000000E+00  0.00000000E+00  0.00000000E+00
  0.00000000E+00  0.00000000E+00  0.00000000E+00
  0.00000000E+00  0.00000000E+00  0.00000000E+00
  0.00000000E+00  0.00000000E+00  0.00000000E+00
  0.00000000E+00  0.00000000E+00  0.00000000E+00
  0.00000000E+00  0.00000000E+00  0.00000000E+00
  0.00000000E+00  0.00000000E+00  0.00000000E+00
  0.00000000E+00  0.00000000E+00  0.00000000E+00
  0.00000000E+00  0.00000000E+00  0.00000000E+00
  0.00000000E+00  0.00000000E+00  0.00000000E+00
  0.00000000E+00  0.00000000E+00  0.00000000E+00
  0.00000000E+00  0.00000000E+00  0.00000000E+00
  0.00000000E+00  0.00000000E+00  0.00000000E+00
  0.00000000E+00  0.00000000E+00  0.00000000E+00
  0.00000000E+00  0.00000000E+00  0.00000000E+00
  0.00000000E+00  0.00000000E+00  0.00000000E+00
  0.00000000E+00  0.00000000E+00  0.00000000E+00
  0.00000000E+00  0.00000000E+00  0.00000000E+00
  0.00000000E+00  0.00000000E+00  0.00000000E+00
  0.00000000E+00  0.00000000E+00  0.00000000E+00
  0.00000000E+00  0.00000000E+00  0.00000000E+00
  0.00000000E+00  0.00000000E+00  0.00000000E+00
  0.00000000E+00  0.00000000E+00  0.00000000E+00
  0.00000000E+00  0.00000000E+00  0.00000000E+00
  0.00000000E+00  0.00000000E+00  0.00000000E+00
  0.00000000E+00  0.00000000E+00  0.00000000E+00
  0.00000000E+00  0.00000000E+00  0.00000000E+00
  0.00000000E+00  0.00000000E+00  0.00000000E+00
  0.00000000E+00  0.00000000E+00  0.00000000E+00
  0.00000000E+00  0.00000000E+00  0.00000000E+00
  0.00000000E+00  0.00000000E+00  0.00000000E+00
  0.00000000E+00  0.00000000E+00  0.00000000E+00
  0.00000000E+00  0.00000000E+00  0.00000000E+00
  0.00000000E+00  0.00000000E+00  0.00000000E+00
  0.00000000E+00  0.00000000E+00  0.00000000E+00
  0.00000000E+00  0.00000000E+00  0.00000000E+00
  0.00000000E+00  0.00000000E+00  0.00000000E+00
  0.00000000E+00  0.00000000E+00  0.00000000E+00
  0.00000000E+00  0.00000000E+00  0.00000000E+00
  0.00000000E+00  0.00000000E+00  0.00000000E+00
  0.00000000E+00  0.00000000E+00  0.00000000E+00
  0.00000000E+00  0.00000000E+00  0.00000000E+00
  0.00000000E+00  0.00000000E+00  0.00000000E+00
  0.00000000E+00  0.00000000E+00  0.00000000E+00
  0.00000000E+00  0.00000000E+00  0.00000000E+00
  0.00000000E+00  0.00000000E+00  0.00000000E+00
  0.00000000E+00  0.00000000E+00  0.00000000E+00
  0.00000000E+00  0.00000000E+00  0.00000000E+00
  0.00000000E+00  0.00000000E+00  0.00000000E+00
  0.00000000E+00  0.00000000E+00  0.00000000E+00
  0.00000000E+00  0.00000000E+00  0.00000000E+00
  0.00000000E+00  0.00000000E+00  0.00000000E+00
  0.00000000E+00  0.00000000E+00  0.00000000E+00
  0.00000000E+00  0.00000000E+00  0.00000000E+00
  0.00000000E+00  0.00000000E+00  0.00000000E+00
  0.00000000E+00  0.00000000E+00  0.00000000E+00
  0.00000000E+00  0.00000000E+00  0.00000000E+00
  0.00000000E+00  0.00000000E+00  0.00000000E+00
  0.00000000E+00  0.00000000E+00  0.00000000E+00
  0.00000000E+00  0.00000000E+00  0.00000000E+00
  0.00000000E+00  0.00000000E+00  0.00000000E+00
  0.00000000E+00  0.00000000E+00  0.00000000E+00
  0.00000000E+00  0.00000000E+00  0.00000000E+00
  0.00000000E+00  0.00000000E+00  0.00000000E+00
  0.00000000E+00  0.00000000E+00  0.00000000E+00
  0.00000000E+00  0.00000000E+00  0.00000000E+00
  0.00000000E+00  0.00000000E+00  0.00000000E+00
  0.00000000E+00  0.00000000E+00  0.00000000E+00
