Na2 Ti64 Cu64 S2                        
   1.00000000000000     
    12.5468749601132661    0.0000000000000000   -0.0023845427473836
     6.2718613598715018    8.6718031553237864    0.3861000546476283
     0.0000000000000000    0.0000000000000000   34.7217897683016261
   Na   Ti   Cu   S 
     2    64    64     2
Selective dynamics
Direct
  0.9926453896823139  0.2330051715433476  0.7891956556554565   T   T   T
  0.8535965390525453  0.7938369432485169  0.7987491883488251   T   T   T
  0.3164425933806569  0.2395664277010923  0.3457212966903285   F   F   F
  0.8164425933806569  0.2395664277010923  0.3457212966903285   F   F   F
  0.4414425933806569  0.4895664277010923  0.4082212966903285   F   F   F
  0.9414425933806569  0.4895664277010923  0.4082212966903285   F   F   F
  0.0664425933806569  0.7395664277010923  0.4707212966903285   F   F   F
  0.5664425933806569  0.7395664277010923  0.4707212966903285   F   F   F
  0.1914425933806569  0.9895664277010923  0.2832212966903285   F   F   F
  0.6914425933806569  0.9895664277010923  0.2832212966903285   F   F   F
  0.0572832138505461  0.0078851867613068  0.4661416069252695   F   F   F
  0.5572832138505461  0.0078851867613068  0.4661416069252695   F   F   F
  0.1822832138505461  0.2578851867613068  0.2786416069252695   F   F   F
  0.6822832138505461  0.2578851867613068  0.2786416069252695   F   F   F
  0.3072832138505461  0.5078851867613068  0.3411416069252695   F   F   F
  0.8072832138505461  0.5078851867613068  0.3411416069252695   F   F   F
  0.4322832138505461  0.7578851867613068  0.4036416069252695   F   F   F
  0.9322832138505461  0.7578851867613068  0.4036416069252695   F   F   F
  0.4427167861494539  0.9921148132386861  0.2838583930747305   F   F   F
  0.9427167861494539  0.9921148132386861  0.2838583930747305   F   F   F
  0.0677167861494539  0.2421148132386861  0.3463583930747305   F   F   F
  0.5677167861494539  0.2421148132386861  0.3463583930747305   F   F   F
  0.1927167861494539  0.4921148132386861  0.4088583930747305   F   F   F
  0.6927167861494539  0.4921148132386861  0.4088583930747305   F   F   F
  0.3177167861494539  0.7421148132386861  0.4713583930747305   F   F   F
  0.8177167861494539  0.7421148132386861  0.4713583930747305   F   F   F
  0.1835574066193431  0.7604335722989077  0.4042787033096715   F   F   F
  0.6835574066193431  0.7604335722989077  0.4042787033096715   F   F   F
  0.3085574066193431  0.0104335722989077  0.4667787033096715   F   F   F
  0.8085574066193431  0.0104335722989077  0.4667787033096715   F   F   F
  0.4335574066193431  0.2604335722989077  0.2792787033096715   F   F   F
  0.9335574066193431  0.2604335722989077  0.2792787033096715   F   F   F
  0.0585574066193431  0.5104335722989077  0.3417787033096715   F   F   F
  0.5585574066193431  0.5104335722989077  0.3417787033096715   F   F   F
  0.3164425933806569  0.2395664277010923  0.5957212966903285   F   F   F
  0.8164425933806569  0.2395664277010923  0.5957212966903285   F   F   F
  0.4393243897283269  0.4932886126235273  0.6596079502908744   T   T   T
  0.9405433559995297  0.4964387833055646  0.6586640407294830   T   T   T
  0.0537755566358287  0.7504703587194340  0.7199825138154733   T   T   T
  0.5751998831924794  0.7347790496717871  0.7191542924961172   T   T   T
  0.1914425933806569  0.9895664277010923  0.5332212966903285   F   F   F
  0.6914425933806569  0.9895664277010923  0.5332212966903285   F   F   F
  0.0680682517421103  0.0091501830547325  0.7152687923155349   T   T   T
  0.5580933305285136  0.0050853430667453  0.7145349760391859   T   T   T
  0.1822832138505461  0.2578851867613068  0.5286416069252695   F   F   F
  0.6822832138505461  0.2578851867613068  0.5286416069252695   F   F   F
  0.3072832138505461  0.5078851867613068  0.5911416069252695   F   F   F
  0.8072832138505461  0.5078851867613068  0.5911416069252695   F   F   F
  0.4336152195574378  0.7581884979640391  0.6534196696423502   T   T   T
  0.9293955546665122  0.7655280225662977  0.6515241798957321   T   T   T
  0.4427167861494539  0.9921148132386861  0.5338583930747305   F   F   F
  0.9427167861494539  0.9921148132386861  0.5338583930747305   F   F   F
  0.0677167861494539  0.2421148132386861  0.5963583930747305   F   F   F
  0.5677167861494539  0.2421148132386861  0.5963583930747305   F   F   F
  0.1853795904616527  0.4990891339482497  0.6602154404898368   T   T   T
  0.6959525250224802  0.4903598419491962  0.6605898579769192   T   T   T
  0.3302809735598699  0.7231560500258608  0.7207307928792103   T   T   T
  0.8165245004222876  0.7390999799437720  0.7158085962902826   T   T   T
  0.1809054129836989  0.7646454724368055  0.6547371413205876   T   T   T
  0.6811842305667590  0.7614453248240008  0.6519731458660710   T   T   T
  0.3172802341261901  0.0100241238471560  0.7160225137756965   T   T   T
  0.7899153757555908  0.0164518123408579  0.7157142661353129   T   T   T
  0.4335574066193431  0.2604335722989077  0.5292787033096715   F   F   F
  0.9335574066193431  0.2604335722989077  0.5292787033096715   F   F   F
  0.0585574066193431  0.5104335722989077  0.5917787033096715   F   F   F
  0.5585574066193431  0.5104335722989077  0.5917787033096715   F   F   F
  0.4397259614144460  0.2396631623782639  0.4073629807072265   F   F   F
  0.9397259614144460  0.2396631623782639  0.4073629807072265   F   F   F
  0.0647259614144460  0.4896631623782639  0.4698629807072265   F   F   F
  0.5647259614144460  0.4896631623782639  0.4698629807072265   F   F   F
  0.1897259614144460  0.7396631623782639  0.2823629807072265   F   F   F
  0.6897259614144460  0.7396631623782639  0.2823629807072265   F   F   F
  0.3147259614144460  0.9896631623782639  0.3448629807072265   F   F   F
  0.8147259614144460  0.9896631623782639  0.3448629807072265   F   F   F
  0.4323315811891320  0.0044519228288920  0.4036657905945660   F   F   F
  0.9323315811891320  0.0044519228288920  0.4036657905945660   F   F   F
  0.0573315811891320  0.2544519228288920  0.4661657905945660   F   F   F
  0.5573315811891320  0.2544519228288920  0.4661657905945660   F   F   F
  0.1823315811891320  0.5044519228288920  0.2786657905945660   F   F   F
  0.6823315811891320  0.5044519228288920  0.2786657905945660   F   F   F
  0.3073315811891320  0.7544519228288920  0.3411657905945660   F   F   F
  0.8073315811891320  0.7544519228288920  0.3411657905945660   F   F   F
  0.0676684188108680  0.9955480771711080  0.3463342094054340   F   F   F
  0.5676684188108680  0.9955480771711080  0.3463342094054340   F   F   F
  0.1926684188108680  0.2455480771711080  0.4088342094054340   F   F   F
  0.6926684188108680  0.2455480771711080  0.4088342094054340   F   F   F
  0.3176684188108680  0.4955480771711080  0.4713342094054340   F   F   F
  0.8176684188108680  0.4955480771711080  0.4713342094054340   F   F   F
  0.4426684188108680  0.7455480771711080  0.2838342094054340   F   F   F
  0.9426684188108680  0.7455480771711080  0.2838342094054340   F   F   F
  0.0602740385855540  0.7603368376217361  0.3426370192927735   F   F   F
  0.5602740385855540  0.7603368376217361  0.3426370192927735   F   F   F
  0.1852740385855540  0.0103368376217361  0.4051370192927735   F   F   F
  0.6852740385855540  0.0103368376217361  0.4051370192927735   F   F   F
  0.3102740385855540  0.2603368376217361  0.4676370192927735   F   F   F
  0.8102740385855540  0.2603368376217361  0.4676370192927735   F   F   F
  0.4352740385855540  0.5103368376217361  0.2801370192927735   F   F   F
  0.9352740385855540  0.5103368376217361  0.2801370192927735   F   F   F
  0.4372785183805667  0.2418129030045884  0.6578702595143264   T   T   T
  0.9430829500580808  0.2401581894503137  0.6577051575679106   T   T   T
  0.0679879241038127  0.4934719196530471  0.7244503240046549   T   T   T
  0.5796673311354242  0.4745703740517637  0.7204943994369197   T   T   T
  0.1897259614144460  0.7396631623782639  0.5323629807072265   F   F   F
  0.6897259614144460  0.7396631623782639  0.5323629807072265   F   F   F
  0.3147259614144460  0.9896631623782639  0.5948629807072265   F   F   F
  0.8147259614144460  0.9896631623782639  0.5948629807072265   F   F   F
  0.4342955170287358  0.0036639815744165  0.6530358768499333   T   T   T
  0.9298503201790754  0.0104749240233741  0.6557702722583854   T   T   T
  0.0630745856997242  0.2642264247478893  0.7127686507248957   T   T   T
  0.5410482640388169  0.2667775926831421  0.7175638546836791   T   T   T
  0.1823315811891320  0.5044519228288920  0.5286657905945660   F   F   F
  0.6823315811891320  0.5044519228288920  0.5286657905945660   F   F   F
  0.3073315811891320  0.7544519228288920  0.5911657905945660   F   F   F
  0.8073315811891320  0.7544519228288920  0.5911657905945660   F   F   F
  0.0676684188108680  0.9955480771711080  0.5963342094054340   F   F   F
  0.5676684188108680  0.9955480771711080  0.5963342094054340   F   F   F
  0.1969779013907283  0.2441267069464255  0.6577166389245620   T   T   T
  0.6895557385350238  0.2452802127599014  0.6600246398594256   T   T   T
  0.3030364018767661  0.4966687793232112  0.7215824168633570   T   T   T
  0.8256971777634978  0.4839890774875504  0.7224173371062236   T   T   T
  0.4426684188108680  0.7455480771711080  0.5338342094054340   F   F   F
  0.9426684188108680  0.7455480771711080  0.5338342094054340   F   F   F
  0.0602740385855540  0.7603368376217361  0.5926370192927735   F   F   F
  0.5602740385855540  0.7603368376217361  0.5926370192927735   F   F   F
  0.1887274676702968  0.0098948469924288  0.6544194017669690   T   T   T
  0.6818509672352873  0.0096054380776215  0.6535114031747928   T   T   T
  0.3083769916137095  0.2609541338318813  0.7185361032515921   T   T   T
  0.8175452292096755  0.2540803134263302  0.7178456564659308   T   T   T
  0.4352740385855540  0.5103368376217361  0.5301370192927735   F   F   F
  0.9352740385855540  0.5103368376217361  0.5301370192927735   F   F   F
  0.2444816923033774  0.9273783043710664  0.7663947709235296   T   T   T
  0.9345472890974820 -0.0008686735958149  0.7640546373390353   T   T   T
 
  0.00000000E+00  0.00000000E+00  0.00000000E+00
  0.00000000E+00  0.00000000E+00  0.00000000E+00
  0.00000000E+00  0.00000000E+00  0.00000000E+00
  0.00000000E+00  0.00000000E+00  0.00000000E+00
  0.00000000E+00  0.00000000E+00  0.00000000E+00
  0.00000000E+00  0.00000000E+00  0.00000000E+00
  0.00000000E+00  0.00000000E+00  0.00000000E+00
  0.00000000E+00  0.00000000E+00  0.00000000E+00
  0.00000000E+00  0.00000000E+00  0.00000000E+00
  0.00000000E+00  0.00000000E+00  0.00000000E+00
  0.00000000E+00  0.00000000E+00  0.00000000E+00
  0.00000000E+00  0.00000000E+00  0.00000000E+00
  0.00000000E+00  0.00000000E+00  0.00000000E+00
  0.00000000E+00  0.00000000E+00  0.00000000E+00
  0.00000000E+00  0.00000000E+00  0.00000000E+00
  0.00000000E+00  0.00000000E+00  0.00000000E+00
  0.00000000E+00  0.00000000E+00  0.00000000E+00
  0.00000000E+00  0.00000000E+00  0.00000000E+00
  0.00000000E+00  0.00000000E+00  0.00000000E+00
  0.00000000E+00  0.00000000E+00  0.00000000E+00
  0.00000000E+00  0.00000000E+00  0.00000000E+00
  0.00000000E+00  0.00000000E+00  0.00000000E+00
  0.00000000E+00  0.00000000E+00  0.00000000E+00
  0.00000000E+00  0.00000000E+00  0.00000000E+00
  0.00000000E+00  0.00000000E+00  0.00000000E+00
  0.00000000E+00  0.00000000E+00  0.00000000E+00
  0.00000000E+00  0.00000000E+00  0.00000000E+00
  0.00000000E+00  0.00000000E+00  0.00000000E+00
  0.00000000E+00  0.00000000E+00  0.00000000E+00
  0.00000000E+00  0.00000000E+00  0.00000000E+00
  0.00000000E+00  0.00000000E+00  0.00000000E+00
  0.00000000E+00  0.00000000E+00  0.00000000E+00
  0.00000000E+00  0.00000000E+00  0.00000000E+00
  0.00000000E+00  0.00000000E+00  0.00000000E+00
  0.00000000E+00  0.00000000E+00  0.00000000E+00
  0.00000000E+00  0.00000000E+00  0.00000000E+00
  0.00000000E+00  0.00000000E+00  0.00000000E+00
  0.00000000E+00  0.00000000E+00  0.00000000E+00
  0.00000000E+00  0.00000000E+00  0.00000000E+00
  0.00000000E+00  0.00000000E+00  0.00000000E+00
  0.00000000E+00  0.00000000E+00  0.00000000E+00
  0.00000000E+00  0.00000000E+00  0.00000000E+00
  0.00000000E+00  0.00000000E+00  0.00000000E+00
  0.00000000E+00  0.00000000E+00  0.00000000E+00
  0.00000000E+00  0.00000000E+00  0.00000000E+00
  0.00000000E+00  0.00000000E+00  0.00000000E+00
  0.00000000E+00  0.00000000E+00  0.00000000E+00
  0.00000000E+00  0.00000000E+00  0.00000000E+00
  0.00000000E+00  0.00000000E+00  0.00000000E+00
  0.00000000E+00  0.00000000E+00  0.00000000E+00
  0.00000000E+00  0.00000000E+00  0.00000000E+00
  0.00000000E+00  0.00000000E+00  0.00000000E+00
  0.00000000E+00  0.00000000E+00  0.00000000E+00
  0.00000000E+00  0.00000000E+00  0.00000000E+00
  0.00000000E+00  0.00000000E+00  0.00000000E+00
  0.00000000E+00  0.00000000E+00  0.00000000E+00
  0.00000000E+00  0.00000000E+00  0.00000000E+00
  0.00000000E+00  0.00000000E+00  0.00000000E+00
  0.00000000E+00  0.00000000E+00  0.00000000E+00
  0.00000000E+00  0.00000000E+00  0.00000000E+00
  0.00000000E+00  0.00000000E+00  0.00000000E+00
  0.00000000E+00  0.00000000E+00  0.00000000E+00
  0.00000000E+00  0.00000000E+00  0.00000000E+00
  0.00000000E+00  0.00000000E+00  0.00000000E+00
  0.00000000E+00  0.00000000E+00  0.00000000E+00
  0.00000000E+00  0.00000000E+00  0.00000000E+00
  0.00000000E+00  0.00000000E+00  0.00000000E+00
  0.00000000E+00  0.00000000E+00  0.00000000E+00
  0.00000000E+00  0.00000000E+00  0.00000000E+00
  0.00000000E+00  0.00000000E+00  0.00000000E+00
  0.00000000E+00  0.00000000E+00  0.00000000E+00
  0.00000000E+00  0.00000000E+00  0.00000000E+00
  0.00000000E+00  0.00000000E+00  0.00000000E+00
  0.00000000E+00  0.00000000E+00  0.00000000E+00
  0.00000000E+00  0.00000000E+00  0.00000000E+00
  0.00000000E+00  0.00000000E+00  0.00000000E+00
  0.00000000E+00  0.00000000E+00  0.00000000E+00
  0.00000000E+00  0.00000000E+00  0.00000000E+00
  0.00000000E+00  0.00000000E+00  0.00000000E+00
  0.00000000E+00  0.00000000E+00  0.00000000E+00
  0.00000000E+00  0.00000000E+00  0.00000000E+00
  0.00000000E+00  0.00000000E+00  0.00000000E+00
  0.00000000E+00  0.00000000E+00  0.00000000E+00
  0.00000000E+00  0.00000000E+00  0.00000000E+00
  0.00000000E+00  0.00000000E+00  0.00000000E+00
  0.00000000E+00  0.00000000E+00  0.00000000E+00
  0.00000000E+00  0.00000000E+00  0.00000000E+00
  0.00000000E+00  0.00000000E+00  0.00000000E+00
  0.00000000E+00  0.00000000E+00  0.00000000E+00
  0.00000000E+00  0.00000000E+00  0.00000000E+00
  0.00000000E+00  0.00000000E+00  0.00000000E+00
  0.00000000E+00  0.00000000E+00  0.00000000E+00
  0.00000000E+00  0.00000000E+00  0.00000000E+00
  0.00000000E+00  0.00000000E+00  0.00000000E+00
  0.00000000E+00  0.00000000E+00  0.00000000E+00
  0.00000000E+00  0.00000000E+00  0.00000000E+00
  0.00000000E+00  0.00000000E+00  0.00000000E+00
  0.00000000E+00  0.00000000E+00  0.00000000E+00
  0.00000000E+00  0.00000000E+00  0.00000000E+00
  0.00000000E+00  0.00000000E+00  0.00000000E+00
  0.00000000E+00  0.00000000E+00  0.00000000E+00
  0.00000000E+00  0.00000000E+00  0.00000000E+00
  0.00000000E+00  0.00000000E+00  0.00000000E+00
  0.00000000E+00  0.00000000E+00  0.00000000E+00
  0.00000000E+00  0.00000000E+00  0.00000000E+00
  0.00000000E+00  0.00000000E+00  0.00000000E+00
  0.00000000E+00  0.00000000E+00  0.00000000E+00
  0.00000000E+00  0.00000000E+00  0.00000000E+00
  0.00000000E+00  0.00000000E+00  0.00000000E+00
  0.00000000E+00  0.00000000E+00  0.00000000E+00
  0.00000000E+00  0.00000000E+00  0.00000000E+00
  0.00000000E+00  0.00000000E+00  0.00000000E+00
  0.00000000E+00  0.00000000E+00  0.00000000E+00
  0.00000000E+00  0.00000000E+00  0.00000000E+00
  0.00000000E+00  0.00000000E+00  0.00000000E+00
  0.00000000E+00  0.00000000E+00  0.00000000E+00
  0.00000000E+00  0.00000000E+00  0.00000000E+00
  0.00000000E+00  0.00000000E+00  0.00000000E+00
  0.00000000E+00  0.00000000E+00  0.00000000E+00
  0.00000000E+00  0.00000000E+00  0.00000000E+00
  0.00000000E+00  0.00000000E+00  0.00000000E+00
  0.00000000E+00  0.00000000E+00  0.00000000E+00
  0.00000000E+00  0.00000000E+00  0.00000000E+00
  0.00000000E+00  0.00000000E+00  0.00000000E+00
  0.00000000E+00  0.00000000E+00  0.00000000E+00
  0.00000000E+00  0.00000000E+00  0.00000000E+00
  0.00000000E+00  0.00000000E+00  0.00000000E+00
  0.00000000E+00  0.00000000E+00  0.00000000E+00
  0.00000000E+00  0.00000000E+00  0.00000000E+00
  0.00000000E+00  0.00000000E+00  0.00000000E+00
  0.00000000E+00  0.00000000E+00  0.00000000E+00
  0.00000000E+00  0.00000000E+00  0.00000000E+00
