Na2 Cu80 Ni40 S1                        
   1.00000000000000     
    10.0641836468921735    0.0000000000000000   -1.2141571318334898
     7.6206003316538453   13.1372037171394638   -0.0233912102957819
     0.0000000000000000    0.0000000000000000   31.3997781570055636
   Na   Cu   Ni   S 
     2    80    40     1
Selective dynamics
Direct
  0.8073076629182186  0.2335594168421000  0.7141826444460720   T   T   T
  0.1785478320963227  0.4423466445778302  0.7143875847645319   T   T   T
  0.2011540785976393  0.2652530113133480  0.3670513595325460   F   F   F
  0.2011540785976393  0.7652530113133480  0.3670513595325460   F   F   F
  0.7011540785976393  0.2652530113133480  0.3670513595325460   F   F   F
  0.7011540785976393  0.7652530113133480  0.3670513595325460   F   F   F
  0.4011540785976422  0.3652530113133494  0.4337180261992160   F   F   F
  0.4011540785976422  0.8652530113133494  0.4337180261992160   F   F   F
  0.9011540785976422  0.3652530113133494  0.4337180261992160   F   F   F
  0.9011540785976422  0.8652530113133494  0.4337180261992160   F   F   F
  0.1011540785976450  0.4652530113133508  0.5003846928658788   F   F   F
  0.1011540785976450  0.9652530113133508  0.5003846928658788   F   F   F
  0.6011540785976450  0.4652530113133508  0.5003846928658788   F   F   F
  0.6011540785976450  0.9652530113133508  0.5003846928658788   F   F   F
  0.3011540785976408  0.0652530113133452  0.5670513595325488   F   F   F
  0.3011540785976408  0.5652530113133452  0.5670513595325488   F   F   F
  0.8011540785976408  0.0652530113133452  0.5670513595325488   F   F   F
  0.8011540785976408  0.5652530113133452  0.5670513595325488   F   F   F
  0.0053210723870538  0.1624331477388760  0.6364952510446147   T   T   T
  0.0009101567496167  0.6644514203809868  0.6353651955689776   T   T   T
  0.5038695930785940  0.1618007530423867  0.6355729566296835   T   T   T
  0.5053800506314773  0.6643007641413108  0.6354962556647835   T   T   T
  0.1988459214023592  0.4347469886866548  0.3662819738007883   F   F   F
  0.1988459214023592  0.9347469886866548  0.3662819738007883   F   F   F
  0.6988459214023592  0.4347469886866548  0.3662819738007883   F   F   F
  0.6988459214023592  0.9347469886866548  0.3662819738007883   F   F   F
  0.3988459214023550  0.0347469886866492  0.4329486404674512   F   F   F
  0.3988459214023550  0.5347469886866492  0.4329486404674512   F   F   F
  0.8988459214023550  0.0347469886866492  0.4329486404674512   F   F   F
  0.8988459214023550  0.5347469886866492  0.4329486404674512   F   F   F
  0.0988459214023578  0.1347469886866506  0.4996153071341212   F   F   F
  0.0988459214023578  0.6347469886866506  0.4996153071341212   F   F   F
  0.5988459214023578  0.1347469886866506  0.4996153071341212   F   F   F
  0.5988459214023578  0.6347469886866506  0.4996153071341212   F   F   F
  0.2988459214023607  0.2347469886866520  0.5662819738007840   F   F   F
  0.2988459214023607  0.7347469886866520  0.5662819738007840   F   F   F
  0.7988459214023607  0.2347469886866520  0.5662819738007840   F   F   F
  0.7988459214023607  0.7347469886866520  0.5662819738007840   F   F   F
  0.5062494206140218  0.3287731230182924  0.6362318055326812   T   T   T
  0.5008083092583943  0.8335918556884035  0.6348430380659830   T   T   T
  0.0018676721907362  0.3329488699225288  0.6361758393901895   T   T   T
 -0.0001859446131815  0.8335877258680859  0.6346654322677581   T   T   T
  0.1511540785976422  0.3652530113133494  0.4337180261992160   F   F   F
  0.1511540785976422  0.8652530113133494  0.4337180261992160   F   F   F
  0.6511540785976422  0.3652530113133494  0.4337180261992160   F   F   F
  0.6511540785976422  0.8652530113133494  0.4337180261992160   F   F   F
  0.3511540785976450  0.4652530113133508  0.5003846928658788   F   F   F
  0.3511540785976450  0.9652530113133508  0.5003846928658788   F   F   F
  0.8511540785976450  0.4652530113133508  0.5003846928658788   F   F   F
  0.8511540785976450  0.9652530113133508  0.5003846928658788   F   F   F
  0.0511540785976408  0.0652530113133452  0.5670513595325488   F   F   F
  0.0511540785976408  0.5652530113133452  0.5670513595325488   F   F   F
  0.5511540785976408  0.0652530113133452  0.5670513595325488   F   F   F
  0.5511540785976408  0.5652530113133452  0.5670513595325488   F   F   F
  0.2541705202925994  0.1630344565154858  0.6359934442651783   T   T   T
  0.2521545672276008  0.6651011974539589  0.6352696670177749   T   T   T
  0.7567549765634226  0.1605312001981062  0.6341038662305228   T   T   T
  0.7538507486152639  0.6643760863276769  0.6363072157694969   T   T   T
  0.4511540785976393  0.2652530113133480  0.3670513595325460   F   F   F
  0.4511540785976393  0.7652530113133480  0.3670513595325460   F   F   F
  0.9511540785976393  0.2652530113133480  0.3670513595325460   F   F   F
  0.9511540785976393  0.7652530113133480  0.3670513595325460   F   F   F
  0.4488459214023592  0.4347469886866548  0.3662819738007883   F   F   F
  0.4488459214023592  0.9347469886866548  0.3662819738007883   F   F   F
  0.9488459214023592  0.4347469886866548  0.3662819738007883   F   F   F
  0.9488459214023592  0.9347469886866548  0.3662819738007883   F   F   F
  0.1488459214023550  0.0347469886866492  0.4329486404674512   F   F   F
  0.1488459214023550  0.5347469886866492  0.4329486404674512   F   F   F
  0.6488459214023550  0.0347469886866492  0.4329486404674512   F   F   F
  0.6488459214023550  0.5347469886866492  0.4329486404674512   F   F   F
  0.3488459214023578  0.1347469886866506  0.4996153071341212   F   F   F
  0.3488459214023578  0.6347469886866506  0.4996153071341212   F   F   F
  0.8488459214023578  0.1347469886866506  0.4996153071341212   F   F   F
  0.8488459214023578  0.6347469886866506  0.4996153071341212   F   F   F
  0.0488459214023607  0.2347469886866520  0.5662819738007840   F   F   F
  0.0488459214023607  0.7347469886866520  0.5662819738007840   F   F   F
  0.5488459214023607  0.2347469886866520  0.5662819738007840   F   F   F
  0.5488459214023607  0.7347469886866520  0.5662819738007840   F   F   F
  0.2493279378844467  0.3314187490883485  0.6332330307726193   T   T   T
  0.2505721877384302  0.8333980314703797  0.6346114286494546   T   T   T
  0.7558267640322898  0.3321563113141378  0.6325767894164332   T   T   T
  0.7498793583789195  0.8333755389102265  0.6347563678127187   T   T   T
  0.0025964563829417 -0.0022774998388561  0.6330806564576072   T   T   T
 -0.0014134396319629  0.4991445760611836  0.6324460335047348   T   T   T
  0.5008669484382098 -0.0016249629858807  0.6329507498496394   T   T   T
  0.5076142499173852  0.4985799747157751  0.6351181971261750   T   T   T
  0.2000000000000028  0.1000000000000014  0.3666666666666671   F   F   F
  0.2000000000000028  0.6000000000000014  0.3666666666666671   F   F   F
  0.7000000000000028  0.1000000000000014  0.3666666666666671   F   F   F
  0.7000000000000028  0.6000000000000014  0.3666666666666671   F   F   F
  0.3999999999999986  0.2000000000000028  0.4333333333333300   F   F   F
  0.3999999999999986  0.7000000000000028  0.4333333333333300   F   F   F
  0.8999999999999986  0.2000000000000028  0.4333333333333300   F   F   F
  0.8999999999999986  0.7000000000000028  0.4333333333333300   F   F   F
  0.1000000000000014  0.2999999999999972  0.5000000000000000   F   F   F
  0.1000000000000014  0.7999999999999972  0.5000000000000000   F   F   F
  0.6000000000000014  0.2999999999999972  0.5000000000000000   F   F   F
  0.6000000000000014  0.7999999999999972  0.5000000000000000   F   F   F
  0.2999999999999972  0.3999999999999986  0.5666666666666700   F   F   F
  0.2999999999999972  0.8999999999999986  0.5666666666666700   F   F   F
  0.7999999999999972  0.3999999999999986  0.5666666666666700   F   F   F
  0.7999999999999972  0.8999999999999986  0.5666666666666700   F   F   F
  0.4500000000000028  0.1000000000000014  0.3666666666666671   F   F   F
  0.4500000000000028  0.6000000000000014  0.3666666666666671   F   F   F
  0.9500000000000028  0.1000000000000014  0.3666666666666671   F   F   F
  0.9500000000000028  0.6000000000000014  0.3666666666666671   F   F   F
  0.1499999999999986  0.2000000000000028  0.4333333333333300   F   F   F
  0.1499999999999986  0.7000000000000028  0.4333333333333300   F   F   F
  0.6499999999999986  0.2000000000000028  0.4333333333333300   F   F   F
  0.6499999999999986  0.7000000000000028  0.4333333333333300   F   F   F
  0.3500000000000014  0.2999999999999972  0.5000000000000000   F   F   F
  0.3500000000000014  0.7999999999999972  0.5000000000000000   F   F   F
  0.8500000000000014  0.2999999999999972  0.5000000000000000   F   F   F
  0.8500000000000014  0.7999999999999972  0.5000000000000000   F   F   F
  0.0499999999999972  0.3999999999999986  0.5666666666666700   F   F   F
  0.0499999999999972  0.8999999999999986  0.5666666666666700   F   F   F
  0.5499999999999972  0.3999999999999986  0.5666666666666700   F   F   F
  0.5499999999999972  0.8999999999999986  0.5666666666666700   F   F   F
  0.2515711459924847 -0.0023017419476079  0.6329085388280989   T   T   T
  0.2471084538013887  0.4991621722599738  0.6356264287266021   T   T   T
  0.7517463216498154 -0.0021947037541576  0.6330489244633452   T   T   T
  0.7534024388007774  0.4995632665438466  0.6329886124576709   T   T   T
  0.4394870763575208  0.4475287929283051  0.6876597407850814   T   T   T
 
  0.00000000E+00  0.00000000E+00  0.00000000E+00
  0.00000000E+00  0.00000000E+00  0.00000000E+00
  0.00000000E+00  0.00000000E+00  0.00000000E+00
  0.00000000E+00  0.00000000E+00  0.00000000E+00
  0.00000000E+00  0.00000000E+00  0.00000000E+00
  0.00000000E+00  0.00000000E+00  0.00000000E+00
  0.00000000E+00  0.00000000E+00  0.00000000E+00
  0.00000000E+00  0.00000000E+00  0.00000000E+00
  0.00000000E+00  0.00000000E+00  0.00000000E+00
  0.00000000E+00  0.00000000E+00  0.00000000E+00
  0.00000000E+00  0.00000000E+00  0.00000000E+00
  0.00000000E+00  0.00000000E+00  0.00000000E+00
  0.00000000E+00  0.00000000E+00  0.00000000E+00
  0.00000000E+00  0.00000000E+00  0.00000000E+00
  0.00000000E+00  0.00000000E+00  0.00000000E+00
  0.00000000E+00  0.00000000E+00  0.00000000E+00
  0.00000000E+00  0.00000000E+00  0.00000000E+00
  0.00000000E+00  0.00000000E+00  0.00000000E+00
  0.00000000E+00  0.00000000E+00  0.00000000E+00
  0.00000000E+00  0.00000000E+00  0.00000000E+00
  0.00000000E+00  0.00000000E+00  0.00000000E+00
  0.00000000E+00  0.00000000E+00  0.00000000E+00
  0.00000000E+00  0.00000000E+00  0.00000000E+00
  0.00000000E+00  0.00000000E+00  0.00000000E+00
  0.00000000E+00  0.00000000E+00  0.00000000E+00
  0.00000000E+00  0.00000000E+00  0.00000000E+00
  0.00000000E+00  0.00000000E+00  0.00000000E+00
  0.00000000E+00  0.00000000E+00  0.00000000E+00
  0.00000000E+00  0.00000000E+00  0.00000000E+00
  0.00000000E+00  0.00000000E+00  0.00000000E+00
  0.00000000E+00  0.00000000E+00  0.00000000E+00
  0.00000000E+00  0.00000000E+00  0.00000000E+00
  0.00000000E+00  0.00000000E+00  0.00000000E+00
  0.00000000E+00  0.00000000E+00  0.00000000E+00
  0.00000000E+00  0.00000000E+00  0.00000000E+00
  0.00000000E+00  0.00000000E+00  0.00000000E+00
  0.00000000E+00  0.00000000E+00  0.00000000E+00
  0.00000000E+00  0.00000000E+00  0.00000000E+00
  0.00000000E+00  0.00000000E+00  0.00000000E+00
  0.00000000E+00  0.00000000E+00  0.00000000E+00
  0.00000000E+00  0.00000000E+00  0.00000000E+00
  0.00000000E+00  0.00000000E+00  0.00000000E+00
  0.00000000E+00  0.00000000E+00  0.00000000E+00
  0.00000000E+00  0.00000000E+00  0.00000000E+00
  0.00000000E+00  0.00000000E+00  0.00000000E+00
  0.00000000E+00  0.00000000E+00  0.00000000E+00
  0.00000000E+00  0.00000000E+00  0.00000000E+00
  0.00000000E+00  0.00000000E+00  0.00000000E+00
  0.00000000E+00  0.00000000E+00  0.00000000E+00
  0.00000000E+00  0.00000000E+00  0.00000000E+00
  0.00000000E+00  0.00000000E+00  0.00000000E+00
  0.00000000E+00  0.00000000E+00  0.00000000E+00
  0.00000000E+00  0.00000000E+00  0.00000000E+00
  0.00000000E+00  0.00000000E+00  0.00000000E+00
  0.00000000E+00  0.00000000E+00  0.00000000E+00
  0.00000000E+00  0.00000000E+00  0.00000000E+00
  0.00000000E+00  0.00000000E+00  0.00000000E+00
  0.00000000E+00  0.00000000E+00  0.00000000E+00
  0.00000000E+00  0.00000000E+00  0.00000000E+00
  0.00000000E+00  0.00000000E+00  0.00000000E+00
  0.00000000E+00  0.00000000E+00  0.00000000E+00
  0.00000000E+00  0.00000000E+00  0.00000000E+00
  0.00000000E+00  0.00000000E+00  0.00000000E+00
  0.00000000E+00  0.00000000E+00  0.00000000E+00
  0.00000000E+00  0.00000000E+00  0.00000000E+00
  0.00000000E+00  0.00000000E+00  0.00000000E+00
  0.00000000E+00  0.00000000E+00  0.00000000E+00
  0.00000000E+00  0.00000000E+00  0.00000000E+00
  0.00000000E+00  0.00000000E+00  0.00000000E+00
  0.00000000E+00  0.00000000E+00  0.00000000E+00
  0.00000000E+00  0.00000000E+00  0.00000000E+00
  0.00000000E+00  0.00000000E+00  0.00000000E+00
  0.00000000E+00  0.00000000E+00  0.00000000E+00
  0.00000000E+00  0.00000000E+00  0.00000000E+00
  0.00000000E+00  0.00000000E+00  0.00000000E+00
  0.00000000E+00  0.00000000E+00  0.00000000E+00
  0.00000000E+00  0.00000000E+00  0.00000000E+00
  0.00000000E+00  0.00000000E+00  0.00000000E+00
  0.00000000E+00  0.00000000E+00  0.00000000E+00
  0.00000000E+00  0.00000000E+00  0.00000000E+00
  0.00000000E+00  0.00000000E+00  0.00000000E+00
  0.00000000E+00  0.00000000E+00  0.00000000E+00
  0.00000000E+00  0.00000000E+00  0.00000000E+00
  0.00000000E+00  0.00000000E+00  0.00000000E+00
  0.00000000E+00  0.00000000E+00  0.00000000E+00
  0.00000000E+00  0.00000000E+00  0.00000000E+00
  0.00000000E+00  0.00000000E+00  0.00000000E+00
  0.00000000E+00  0.00000000E+00  0.00000000E+00
  0.00000000E+00  0.00000000E+00  0.00000000E+00
  0.00000000E+00  0.00000000E+00  0.00000000E+00
  0.00000000E+00  0.00000000E+00  0.00000000E+00
  0.00000000E+00  0.00000000E+00  0.00000000E+00
  0.00000000E+00  0.00000000E+00  0.00000000E+00
  0.00000000E+00  0.00000000E+00  0.00000000E+00
  0.00000000E+00  0.00000000E+00  0.00000000E+00
  0.00000000E+00  0.00000000E+00  0.00000000E+00
  0.00000000E+00  0.00000000E+00  0.00000000E+00
  0.00000000E+00  0.00000000E+00  0.00000000E+00
  0.00000000E+00  0.00000000E+00  0.00000000E+00
  0.00000000E+00  0.00000000E+00  0.00000000E+00
  0.00000000E+00  0.00000000E+00  0.00000000E+00
  0.00000000E+00  0.00000000E+00  0.00000000E+00
  0.00000000E+00  0.00000000E+00  0.00000000E+00
  0.00000000E+00  0.00000000E+00  0.00000000E+00
  0.00000000E+00  0.00000000E+00  0.00000000E+00
  0.00000000E+00  0.00000000E+00  0.00000000E+00
  0.00000000E+00  0.00000000E+00  0.00000000E+00
  0.00000000E+00  0.00000000E+00  0.00000000E+00
  0.00000000E+00  0.00000000E+00  0.00000000E+00
  0.00000000E+00  0.00000000E+00  0.00000000E+00
  0.00000000E+00  0.00000000E+00  0.00000000E+00
  0.00000000E+00  0.00000000E+00  0.00000000E+00
  0.00000000E+00  0.00000000E+00  0.00000000E+00
  0.00000000E+00  0.00000000E+00  0.00000000E+00
  0.00000000E+00  0.00000000E+00  0.00000000E+00
  0.00000000E+00  0.00000000E+00  0.00000000E+00
  0.00000000E+00  0.00000000E+00  0.00000000E+00
  0.00000000E+00  0.00000000E+00  0.00000000E+00
  0.00000000E+00  0.00000000E+00  0.00000000E+00
  0.00000000E+00  0.00000000E+00  0.00000000E+00
  0.00000000E+00  0.00000000E+00  0.00000000E+00
  0.00000000E+00  0.00000000E+00  0.00000000E+00
  0.00000000E+00  0.00000000E+00  0.00000000E+00
