Na2 Fe72 S4                             
    1.000000000000000     
     8.5891064999999998    0.0000000000000000    0.0000000000000005
    -0.0000000000000005    8.0978872673112718    0.0000000000000005
     0.0000000000000000    0.0000000000000000   24.2936618019338120
   Na   Fe   S 
     2    72     4
Selective dynamics
Direct
  0.1896141170877171  0.9068349028119658  0.8327493377811661   T   T   T
  0.9935301534467532  0.2956244170571478  0.8368591517641785   T   T   T
  0.0000000000000000  0.2500000000000000  0.2916666666666643   F   F   F
  0.0000000000000000  0.7500000000000000  0.2916666666666643   F   F   F
  0.3333333333333357  0.2500000000000000  0.2916666666666643   F   F   F
  0.3333333333333357  0.7500000000000000  0.2916666666666643   F   F   F
  0.6666666666666643  0.2500000000000000  0.2916666666666643   F   F   F
  0.6666666666666643  0.7500000000000000  0.2916666666666643   F   F   F
  0.0000000000000000  0.0000000000000000  0.3750000000000000   F   F   F
  0.0000000000000000  0.5000000000000000  0.3750000000000000   F   F   F
  0.3333333333333357  0.0000000000000000  0.3750000000000000   F   F   F
  0.3333333333333357  0.5000000000000000  0.3750000000000000   F   F   F
  0.6666666666666643  0.0000000000000000  0.3750000000000000   F   F   F
  0.6666666666666643  0.5000000000000000  0.3750000000000000   F   F   F
  0.1666666666666643  0.2500000000000000  0.3750000000000000   F   F   F
  0.1666666666666643  0.7500000000000000  0.3750000000000000   F   F   F
  0.5000000000000000  0.2500000000000000  0.3750000000000000   F   F   F
  0.5000000000000000  0.7500000000000000  0.3750000000000000   F   F   F
  0.8333333333333357  0.2500000000000000  0.3750000000000000   F   F   F
  0.8333333333333357  0.7500000000000000  0.3750000000000000   F   F   F
  0.1666666666666643  0.0000000000000000  0.2916666666666643   F   F   F
  0.1666666666666643  0.5000000000000000  0.2916666666666643   F   F   F
  0.5000000000000000  0.0000000000000000  0.2916666666666643   F   F   F
  0.5000000000000000  0.5000000000000000  0.2916666666666643   F   F   F
  0.8333333333333357  0.0000000000000000  0.2916666666666643   F   F   F
  0.8333333333333357  0.5000000000000000  0.2916666666666643   F   F   F
  0.0000000000000000  0.2500000000000000  0.4583333333333357   F   F   F
  0.0000000000000000  0.7500000000000000  0.4583333333333357   F   F   F
  0.3333333333333357  0.2500000000000000  0.4583333333333357   F   F   F
  0.3333333333333357  0.7500000000000000  0.4583333333333357   F   F   F
  0.6666666666666643  0.2500000000000000  0.4583333333333357   F   F   F
  0.6666666666666643  0.7500000000000000  0.4583333333333357   F   F   F
  0.0000000000000000  0.0000000000000000  0.5416666666666643   F   F   F
  0.0000000000000000  0.5000000000000000  0.5416666666666643   F   F   F
  0.3333333333333357  0.0000000000000000  0.5416666666666643   F   F   F
  0.3333333333333357  0.5000000000000000  0.5416666666666643   F   F   F
  0.6666666666666643  0.0000000000000000  0.5416666666666643   F   F   F
  0.6666666666666643  0.5000000000000000  0.5416666666666643   F   F   F
  0.1666666666666643  0.2500000000000000  0.5416666666666643   F   F   F
  0.1666666666666643  0.7500000000000000  0.5416666666666643   F   F   F
  0.5000000000000000  0.2500000000000000  0.5416666666666643   F   F   F
  0.5000000000000000  0.7500000000000000  0.5416666666666643   F   F   F
  0.8333333333333357  0.2500000000000000  0.5416666666666643   F   F   F
  0.8333333333333357  0.7500000000000000  0.5416666666666643   F   F   F
  0.1666666666666643  0.0000000000000000  0.4583333333333357   F   F   F
  0.1666666666666643  0.5000000000000000  0.4583333333333357   F   F   F
  0.5000000000000000  0.0000000000000000  0.4583333333333357   F   F   F
  0.5000000000000000  0.5000000000000000  0.4583333333333357   F   F   F
  0.8333333333333357  0.0000000000000000  0.4583333333333357   F   F   F
  0.8333333333333357  0.5000000000000000  0.4583333333333357   F   F   F
  0.9988902301196195  0.2483835083030072  0.6258401815090953   T   T   T
  0.0000909982269742  0.7481053373695723  0.6262575392722288   T   T   T
  0.3337160573607248  0.2489540035445916  0.6259923308379071   T   T   T
  0.3339984838884088  0.7482414956938449  0.6261598716071204   T   T   T
  0.6686330653988153  0.2485197849852221  0.6259603964084762   T   T   T
  0.6667685782857478  0.7479909831557964  0.6268940461311362   T   T   T
  0.0146673251314873  0.9933106842698843  0.7092075980815649   T   T   T
  0.9963782817920844  0.4983354152386277  0.7090170512187366   T   T   T
  0.3336255162029705  0.0023903317060359  0.7127719850802542   T   T   T
  0.3313685163522337  0.4915395185540732  0.7134618741932781   T   T   T
  0.6535879293644192  0.9932761162823391  0.7095052099053604   T   T   T
  0.6729472024255508  0.4980089664841778  0.7102922503447118   T   T   T
  0.1527835801983232  0.2492161468252999  0.7091086718808374   T   T   T
  0.1714193827506659  0.7454403332248037  0.7085110482418601   T   T   T
  0.5144901940036358  0.2487703376900647  0.7088709846892466   T   T   T
  0.4935190695179060  0.7451537166688874  0.7105222861223417   T   T   T
  0.8345290828235112  0.2400908415050172  0.7132363256619030   T   T   T
  0.8362905487574225  0.7507013833046480  0.7126257281534031   T   T   T
  0.1679224747579559  0.9985626441378516  0.6257365543691128   T   T   T
  0.1677103165148207  0.4984437308389954  0.6263730293729982   T   T   T
  0.4991136930660746  0.9983355491795378  0.6260785353222912   T   T   T
  0.5001305812863610  0.4987456429645446  0.6270288388448992   T   T   T
  0.8333393018002002  0.9979368349582254  0.6260680058670489   T   T   T
  0.8334755982040717  0.4986236034422546  0.6262939562561730   T   T   T
  0.8723206838289490  0.9750297178715297  0.8590743193676944   T   T   T
  0.3332347254671892  0.2457483737885179  0.7736484053819407   T   T   T
  0.3096540799563929  0.2249414316992308  0.8584897671126150   T   T   T
  0.8369983602653337  0.9835975342362562  0.7743415159364176   T   T   T
 
  0.00000000E+00  0.00000000E+00  0.00000000E+00
  0.00000000E+00  0.00000000E+00  0.00000000E+00
  0.00000000E+00  0.00000000E+00  0.00000000E+00
  0.00000000E+00  0.00000000E+00  0.00000000E+00
  0.00000000E+00  0.00000000E+00  0.00000000E+00
  0.00000000E+00  0.00000000E+00  0.00000000E+00
  0.00000000E+00  0.00000000E+00  0.00000000E+00
  0.00000000E+00  0.00000000E+00  0.00000000E+00
  0.00000000E+00  0.00000000E+00  0.00000000E+00
  0.00000000E+00  0.00000000E+00  0.00000000E+00
  0.00000000E+00  0.00000000E+00  0.00000000E+00
  0.00000000E+00  0.00000000E+00  0.00000000E+00
  0.00000000E+00  0.00000000E+00  0.00000000E+00
  0.00000000E+00  0.00000000E+00  0.00000000E+00
  0.00000000E+00  0.00000000E+00  0.00000000E+00
  0.00000000E+00  0.00000000E+00  0.00000000E+00
  0.00000000E+00  0.00000000E+00  0.00000000E+00
  0.00000000E+00  0.00000000E+00  0.00000000E+00
  0.00000000E+00  0.00000000E+00  0.00000000E+00
  0.00000000E+00  0.00000000E+00  0.00000000E+00
  0.00000000E+00  0.00000000E+00  0.00000000E+00
  0.00000000E+00  0.00000000E+00  0.00000000E+00
  0.00000000E+00  0.00000000E+00  0.00000000E+00
  0.00000000E+00  0.00000000E+00  0.00000000E+00
  0.00000000E+00  0.00000000E+00  0.00000000E+00
  0.00000000E+00  0.00000000E+00  0.00000000E+00
  0.00000000E+00  0.00000000E+00  0.00000000E+00
  0.00000000E+00  0.00000000E+00  0.00000000E+00
  0.00000000E+00  0.00000000E+00  0.00000000E+00
  0.00000000E+00  0.00000000E+00  0.00000000E+00
  0.00000000E+00  0.00000000E+00  0.00000000E+00
  0.00000000E+00  0.00000000E+00  0.00000000E+00
  0.00000000E+00  0.00000000E+00  0.00000000E+00
  0.00000000E+00  0.00000000E+00  0.00000000E+00
  0.00000000E+00  0.00000000E+00  0.00000000E+00
  0.00000000E+00  0.00000000E+00  0.00000000E+00
  0.00000000E+00  0.00000000E+00  0.00000000E+00
  0.00000000E+00  0.00000000E+00  0.00000000E+00
  0.00000000E+00  0.00000000E+00  0.00000000E+00
  0.00000000E+00  0.00000000E+00  0.00000000E+00
  0.00000000E+00  0.00000000E+00  0.00000000E+00
  0.00000000E+00  0.00000000E+00  0.00000000E+00
  0.00000000E+00  0.00000000E+00  0.00000000E+00
  0.00000000E+00  0.00000000E+00  0.00000000E+00
  0.00000000E+00  0.00000000E+00  0.00000000E+00
  0.00000000E+00  0.00000000E+00  0.00000000E+00
  0.00000000E+00  0.00000000E+00  0.00000000E+00
  0.00000000E+00  0.00000000E+00  0.00000000E+00
  0.00000000E+00  0.00000000E+00  0.00000000E+00
  0.00000000E+00  0.00000000E+00  0.00000000E+00
  0.00000000E+00  0.00000000E+00  0.00000000E+00
  0.00000000E+00  0.00000000E+00  0.00000000E+00
  0.00000000E+00  0.00000000E+00  0.00000000E+00
  0.00000000E+00  0.00000000E+00  0.00000000E+00
  0.00000000E+00  0.00000000E+00  0.00000000E+00
  0.00000000E+00  0.00000000E+00  0.00000000E+00
  0.00000000E+00  0.00000000E+00  0.00000000E+00
  0.00000000E+00  0.00000000E+00  0.00000000E+00
  0.00000000E+00  0.00000000E+00  0.00000000E+00
  0.00000000E+00  0.00000000E+00  0.00000000E+00
  0.00000000E+00  0.00000000E+00  0.00000000E+00
  0.00000000E+00  0.00000000E+00  0.00000000E+00
  0.00000000E+00  0.00000000E+00  0.00000000E+00
  0.00000000E+00  0.00000000E+00  0.00000000E+00
  0.00000000E+00  0.00000000E+00  0.00000000E+00
  0.00000000E+00  0.00000000E+00  0.00000000E+00
  0.00000000E+00  0.00000000E+00  0.00000000E+00
  0.00000000E+00  0.00000000E+00  0.00000000E+00
  0.00000000E+00  0.00000000E+00  0.00000000E+00
  0.00000000E+00  0.00000000E+00  0.00000000E+00
  0.00000000E+00  0.00000000E+00  0.00000000E+00
  0.00000000E+00  0.00000000E+00  0.00000000E+00
  0.00000000E+00  0.00000000E+00  0.00000000E+00
  0.00000000E+00  0.00000000E+00  0.00000000E+00
  0.00000000E+00  0.00000000E+00  0.00000000E+00
  0.00000000E+00  0.00000000E+00  0.00000000E+00
  0.00000000E+00  0.00000000E+00  0.00000000E+00
  0.00000000E+00  0.00000000E+00  0.00000000E+00
