K12 V48 O119                            
   1.00000000000000     
    11.0554125600000006    0.0000000000000000    0.0000000000000007
    -0.0000000000000007   11.6356429800000001    0.0000000000000007
     0.0000000000000000    0.0000000000000000   18.6053069399999984
   K    V    O 
    12    48   119
Selective dynamics
Direct
 -0.0000774115010434  0.5707280459320927  0.2544058025815883   T   T   T
  0.3320668422158614  0.5727661521212748  0.2514555646676254   T   T   T
  0.6666304978255689  0.5741310972848025  0.2505655238899977   T   T   T
  0.0000000000000000  0.4217462399999974  0.7500000000000000   F   F   F
  0.3333333333333357  0.4217462399999974  0.7500000000000000   F   F   F
  0.6666666666666643  0.4217462399999974  0.7500000000000000   F   F   F
  0.1655229208497528  0.0796291347163583  0.2512805908431783   T   T   T
  0.5000000000000000  0.0782537600000026  0.2500000000000000   F   F   F
  0.8352680189013966  0.0763981567686942  0.2487425263522652   T   T   T
  0.8333333333333357  0.9217462399999974  0.7500000000000000   F   F   F
  0.1666666666666643  0.9217462399999974  0.7500000000000000   F   F   F
  0.5000000000000000  0.9217462399999974  0.7500000000000000   F   F   F
  1.0010510457755990  0.9331452951206496  0.4196750490423163   T   T   T
  0.3333333333333357  0.9347524800000002  0.4219866099999976   F   F   F
  0.6666666666666643  0.9347524800000002  0.4219866099999976   F   F   F
 -0.0007155215402466  0.0675581115339060  0.5784812206490618   T   T   T
  0.3333333333333357  0.0652475199999998  0.5780133900000024   F   F   F
  0.6666666666666643  0.0652475199999998  0.5780133900000024   F   F   F
  0.0000000000000000  0.9347524800000002  0.0780133900000024   F   F   F
  0.3333333333333357  0.9347524800000002  0.0780133900000024   F   F   F
  0.6666666666666643  0.9347524800000002  0.0780133900000024   F   F   F
  0.0000000000000000  0.0652475199999998  0.9219866099999976   F   F   F
  0.3333333333333357  0.0652475199999998  0.9219866099999976   F   F   F
  0.6666666666666643  0.0652475199999998  0.9219866099999976   F   F   F
  0.1749249762072737  0.4353268152792656  0.4324074246737306   T   T   T
  0.5000000000000000  0.4347524800000002  0.4219866099999976   F   F   F
  0.8255359488786560  0.4330771923641954  0.4331004735638253   T   T   T
  0.8353508347724969  0.5696486162652833  0.5773335670499974   T   T   T
  0.1656396782295188  0.5730072922902666  0.5816391772410657   T   T   T
  0.5000000000000000  0.5652475199999998  0.5780133900000024   F   F   F
  0.8333333333333357  0.4347524800000002  0.0780133900000024   F   F   F
  0.1666666666666643  0.4347524800000002  0.0780133900000024   F   F   F
  0.5000000000000000  0.4347524800000002  0.0780133900000024   F   F   F
  0.8333333333333357  0.5652475199999998  0.9219866099999976   F   F   F
  0.1666666666666643  0.5652475199999998  0.9219866099999976   F   F   F
  0.5000000000000000  0.5652475199999998  0.9219866099999976   F   F   F
  0.9987753384601282  0.2217073666994464  0.4149762771395752   T   T   T
  0.3299770011031181  0.2290139289927236  0.4166749050822216   T   T   T
  0.6657591334975159  0.2298877914922100  0.4224680753180779   T   T   T
  0.9987967271281057  0.7735206904111779  0.5804692357978521   T   T   T
  0.3333333333333357  0.7686988499999998  0.5800612000000029   F   F   F
  0.6666666666666643  0.7686988499999998  0.5800612000000029   F   F   F
  0.0000000000000000  0.2313011500000002  0.0800612000000029   F   F   F
  0.3333333333333357  0.2313011500000002  0.0800612000000029   F   F   F
  0.6666666666666643  0.2313011500000002  0.0800612000000029   F   F   F
  0.0000000000000000  0.7686988499999998  0.9199387999999971   F   F   F
  0.3333333333333357  0.7686988499999998  0.9199387999999971   F   F   F
  0.6666666666666643  0.7686988499999998  0.9199387999999971   F   F   F
  0.1663361688673048  0.7292397041390618  0.4202904324504637   T   T   T
  0.5000000000000000  0.7313011500000002  0.4199387999999971   F   F   F
  0.8342154339809299  0.7297402507236531  0.4191888197945195   T   T   T
  0.8342231809914185  0.2695110273456665  0.5796866231503023   T   T   T
  0.1652005042979336  0.2729313613877530  0.5748705830880683   T   T   T
  0.5000000000000000  0.2686988499999998  0.5800612000000029   F   F   F
  0.8333333333333357  0.7313011500000002  0.0800612000000029   F   F   F
  0.1666666666666643  0.7313011500000002  0.0800612000000029   F   F   F
  0.5000000000000000  0.7313011500000002  0.0800612000000029   F   F   F
  0.8333333333333357  0.2686988499999998  0.9199387999999971   F   F   F
  0.1666666666666643  0.2686988499999998  0.9199387999999971   F   F   F
  0.5000000000000000  0.2686988499999998  0.9199387999999971   F   F   F
 -0.0017546157809234  0.0751078414483823  0.4525339543803005   T   T   T
  0.3320457139678842  0.0765588293885796  0.4540990599324244   T   T   T
  0.6661770180018514  0.0805154017932157  0.4544938319903709   T   T   T
  0.0000000000000000  0.9198280399999987  0.5465899900000011   F   F   F
  0.3333333333333357  0.9198280399999987  0.5465899900000011   F   F   F
  0.6666666666666643  0.9198280399999987  0.5465899900000011   F   F   F
  0.0000000000000000  0.0801719600000013  0.0465899900000011   F   F   F
  0.3333333333333357  0.0801719600000013  0.0465899900000011   F   F   F
  0.6666666666666643  0.0801719600000013  0.0465899900000011   F   F   F
  0.0000000000000000  0.9198280399999987  0.9534100099999989   F   F   F
  0.3333333333333357  0.9198280399999987  0.9534100099999989   F   F   F
  0.6666666666666643  0.9198280399999987  0.9534100099999989   F   F   F
  0.1730246929134654  0.5921168437878340  0.4602594941557851   T   T   T
  0.5000000000000000  0.5801719600000013  0.4534100099999989   F   F   F
  0.8265079923129849  0.5918155706836293  0.4565210371381996   T   T   T
  0.8511463833850321  0.4264869458009273  0.5407970878639066   T   T   T
  0.1521864339734701  0.4187075585096082  0.5414725697903066   T   T   T
  0.5000000000000000  0.4198280399999987  0.5465899900000011   F   F   F
  0.1666666666666643  0.5801719600000013  0.0465899900000011   F   F   F
  0.5000000000000000  0.5801719600000013  0.0465899900000011   F   F   F
  0.8333333333333357  0.5801719600000013  0.0465899900000011   F   F   F
  0.8333333333333357  0.4198280399999987  0.9534100099999989   F   F   F
  0.1666666666666643  0.4198280399999987  0.9534100099999989   F   F   F
  0.5000000000000000  0.4198280399999987  0.9534100099999989   F   F   F
  0.0028248517806742  0.2344703149905486  0.5578040628604953   T   T   T
  0.3345771396963899  0.2394100141631006  0.5574988734130363   T   T   T
  0.6612605729066460  0.2407190592101074  0.5575582417829109   T   T   T
 -0.0001096334042124  0.7610687091003319  0.4393534123014008   T   T   T
  0.3333333333333357  0.7595458799999975  0.4418101899999982   F   F   F
  0.6666666666666643  0.7595458799999975  0.4418101899999982   F   F   F
  0.0000000000000000  0.2404541200000025  0.9418101899999982   F   F   F
  0.3333333333333357  0.2404541200000025  0.9418101899999982   F   F   F
  0.6666666666666643  0.2404541200000025  0.9418101899999982   F   F   F
  0.0000000000000000  0.7595458799999975  0.0581898100000018   F   F   F
  0.3333333333333357  0.7595458799999975  0.0581898100000018   F   F   F
  0.6666666666666643  0.7595458799999975  0.0581898100000018   F   F   F
  0.8343358683052483  0.7444029018048564  0.5607288839733324   T   T   T
  0.1675161102440539  0.7466598717030293  0.5626795759755844   T   T   T
  0.5000000000000000  0.7404541200000025  0.5581898100000018   F   F   F
  0.8323931771854306  0.2601033917530874  0.4471100344005318   T   T   T
  0.1585287352895782  0.2633684198059070  0.4439515706401562   T   T   T
  0.5000000000000000  0.2595458799999975  0.4418101899999982   F   F   F
  0.8333333333333357  0.7404541200000025  0.9418101899999982   F   F   F
  0.1666666666666643  0.7404541200000025  0.9418101899999982   F   F   F
  0.5000000000000000  0.7404541200000025  0.9418101899999982   F   F   F
  0.8333333333333357  0.2595458799999975  0.0581898100000018   F   F   F
  0.1666666666666643  0.2595458799999975  0.0581898100000018   F   F   F
  0.5000000000000000  0.2595458799999975  0.0581898100000018   F   F   F
  0.9929606583742087  0.1955039891944725  0.3299900998136537   T   T   T
  0.3300616302696328  0.2050496470186441  0.3309234506180385   T   T   T
  0.6691022974606867  0.2085584840564543  0.3372992401583527   T   T   T
  0.0000000000000000  0.7914145800000014  0.6656442000000027   F   F   F
  0.3333333333333357  0.7914145800000014  0.6656442000000027   F   F   F
  0.6666666666666643  0.7914145800000014  0.6656442000000027   F   F   F
 -0.0001711369128760  0.2090113417013842  0.1655001039081675   T   T   T
  0.3333333333333357  0.2085854199999986  0.1656442000000027   F   F   F
  0.6666666666666643  0.2085854199999986  0.1656442000000027   F   F   F
  0.0000000000000000  0.7914145800000014  0.8343557999999973   F   F   F
  0.3333333333333357  0.7914145800000014  0.8343557999999973   F   F   F
  0.6666666666666643  0.7914145800000014  0.8343557999999973   F   F   F
  0.8310168946084736  0.7076333500569922  0.3337908635164440   T   T   T
  0.1693933130657830  0.7049319154548179  0.3351938017913342   T   T   T
  0.5000000000000000  0.7085854199999986  0.3343557999999973   F   F   F
  0.8316317867128588  0.2986753993369884  0.6648693763395177   T   T   T
  0.1683086058456757  0.2942128594689396  0.6601527966261734   T   T   T
  0.5000000000000000  0.2914145800000014  0.6656442000000027   F   F   F
  0.8333333333333357  0.7085854199999986  0.1656442000000027   F   F   F
  0.1666666666666643  0.7085854199999986  0.1656442000000027   F   F   F
  0.5000000000000000  0.7085854199999986  0.1656442000000027   F   F   F
  0.8333333333333357  0.2914145800000014  0.8343557999999973   F   F   F
  0.1666666666666643  0.2914145800000014  0.8343557999999973   F   F   F
  0.5000000000000000  0.2914145800000014  0.8343557999999973   F   F   F
  0.3376871403647004  0.3986614301378652  0.4310820913363237   T   T   T
  0.6625054953745468  0.3970531324571360  0.4319457363704456   T   T   T
 -0.0029666706422462  0.6101402955259397  0.5654482146339442   T   T   T
  0.3379736072852878  0.6040406036820862  0.5663645830747492   T   T   T
  0.6663682266759929  0.6016193750045802  0.5651982426289980   T   T   T
  0.0000000000000000  0.3994773000000009  0.0654753499999998   F   F   F
  0.3333333333333357  0.3994773000000009  0.0654753499999998   F   F   F
  0.6666666666666643  0.3994773000000009  0.0654753499999998   F   F   F
  0.0000000000000000  0.6005226999999991  0.9345246500000002   F   F   F
  0.3333333333333357  0.6005226999999991  0.9345246500000002   F   F   F
  0.6666666666666643  0.6005226999999991  0.9345246500000002   F   F   F
  0.8333333333333357  0.8994773000000009  0.4345246500000002   F   F   F
  0.1666666666666643  0.8994773000000009  0.4345246500000002   F   F   F
  0.5000000000000000  0.8994773000000009  0.4345246500000002   F   F   F
  0.8335432505463116  0.0997654037560975  0.5663332338892033   T   T   T
  0.1680534324411250  0.1020876112628024  0.5655544851304790   T   T   T
  0.5000000000000000  0.1005226999999991  0.5654753499999998   F   F   F
  0.8333333333333357  0.8994773000000009  0.0654753499999998   F   F   F
  0.1666666666666643  0.8994773000000009  0.0654753499999998   F   F   F
  0.5000000000000000  0.8994773000000009  0.0654753499999998   F   F   F
  0.8333333333333357  0.1005226999999991  0.9345246500000002   F   F   F
  0.1666666666666643  0.1005226999999991  0.9345246500000002   F   F   F
  0.5000000000000000  0.1005226999999991  0.9345246500000002   F   F   F
  0.9996670987959931  0.9496354506590150  0.3336152242084511   T   T   T
  0.3333333333333357  0.9530042000000023  0.3358289499999998   F   F   F
  0.6666666666666643  0.9530042000000023  0.3358289499999998   F   F   F
  0.0000000000000000  0.0469957999999977  0.6641710500000002   F   F   F
  0.3333333333333357  0.0469957999999977  0.6641710500000002   F   F   F
  0.6666666666666643  0.0469957999999977  0.6641710500000002   F   F   F
  0.0000000000000000  0.9530042000000023  0.1641710500000002   F   F   F
  0.3333333333333357  0.9530042000000023  0.1641710500000002   F   F   F
  0.6666666666666643  0.9530042000000023  0.1641710500000002   F   F   F
  0.0000000000000000  0.0469957999999977  0.8358289499999998   F   F   F
  0.3333333333333357  0.0469957999999977  0.8358289499999998   F   F   F
  0.6666666666666643  0.0469957999999977  0.8358289499999998   F   F   F
  0.1259628667930181  0.4482261780965080  0.3501494931374808   T   T   T
  0.5000000000000000  0.4530042000000023  0.3358289499999998   F   F   F
  0.8785049403903531  0.4405011833854067  0.3514116873062088   T   T   T
  0.1671509973493631  0.5435485781500413  0.6670801631244744   T   T   T
  0.5000000000000000  0.5469957999999977  0.6641710500000002   F   F   F
  0.8322223564819674  0.5459025950097426  0.6626945958148763   T   T   T
  0.8325741697607574  0.4536810819864098  0.1638754976670725   T   T   T
  0.1672749192824939  0.4537656720259202  0.1638862991496633   T   T   T
  0.5000000000000000  0.4530042000000023  0.1641710500000002   F   F   F
  0.8333333333333357  0.5469957999999977  0.8358289499999998   F   F   F
  0.1666666666666643  0.5469957999999977  0.8358289499999998   F   F   F
  0.5000000000000000  0.5469957999999977  0.8358289499999998   F   F   F
 
  0.00000000E+00  0.00000000E+00  0.00000000E+00
  0.00000000E+00  0.00000000E+00  0.00000000E+00
  0.00000000E+00  0.00000000E+00  0.00000000E+00
  0.00000000E+00  0.00000000E+00  0.00000000E+00
  0.00000000E+00  0.00000000E+00  0.00000000E+00
  0.00000000E+00  0.00000000E+00  0.00000000E+00
  0.00000000E+00  0.00000000E+00  0.00000000E+00
  0.00000000E+00  0.00000000E+00  0.00000000E+00
  0.00000000E+00  0.00000000E+00  0.00000000E+00
  0.00000000E+00  0.00000000E+00  0.00000000E+00
  0.00000000E+00  0.00000000E+00  0.00000000E+00
  0.00000000E+00  0.00000000E+00  0.00000000E+00
  0.00000000E+00  0.00000000E+00  0.00000000E+00
  0.00000000E+00  0.00000000E+00  0.00000000E+00
  0.00000000E+00  0.00000000E+00  0.00000000E+00
  0.00000000E+00  0.00000000E+00  0.00000000E+00
  0.00000000E+00  0.00000000E+00  0.00000000E+00
  0.00000000E+00  0.00000000E+00  0.00000000E+00
  0.00000000E+00  0.00000000E+00  0.00000000E+00
  0.00000000E+00  0.00000000E+00  0.00000000E+00
  0.00000000E+00  0.00000000E+00  0.00000000E+00
  0.00000000E+00  0.00000000E+00  0.00000000E+00
  0.00000000E+00  0.00000000E+00  0.00000000E+00
  0.00000000E+00  0.00000000E+00  0.00000000E+00
  0.00000000E+00  0.00000000E+00  0.00000000E+00
  0.00000000E+00  0.00000000E+00  0.00000000E+00
  0.00000000E+00  0.00000000E+00  0.00000000E+00
  0.00000000E+00  0.00000000E+00  0.00000000E+00
  0.00000000E+00  0.00000000E+00  0.00000000E+00
  0.00000000E+00  0.00000000E+00  0.00000000E+00
  0.00000000E+00  0.00000000E+00  0.00000000E+00
  0.00000000E+00  0.00000000E+00  0.00000000E+00
  0.00000000E+00  0.00000000E+00  0.00000000E+00
  0.00000000E+00  0.00000000E+00  0.00000000E+00
  0.00000000E+00  0.00000000E+00  0.00000000E+00
  0.00000000E+00  0.00000000E+00  0.00000000E+00
  0.00000000E+00  0.00000000E+00  0.00000000E+00
  0.00000000E+00  0.00000000E+00  0.00000000E+00
  0.00000000E+00  0.00000000E+00  0.00000000E+00
  0.00000000E+00  0.00000000E+00  0.00000000E+00
  0.00000000E+00  0.00000000E+00  0.00000000E+00
  0.00000000E+00  0.00000000E+00  0.00000000E+00
  0.00000000E+00  0.00000000E+00  0.00000000E+00
  0.00000000E+00  0.00000000E+00  0.00000000E+00
  0.00000000E+00  0.00000000E+00  0.00000000E+00
  0.00000000E+00  0.00000000E+00  0.00000000E+00
  0.00000000E+00  0.00000000E+00  0.00000000E+00
  0.00000000E+00  0.00000000E+00  0.00000000E+00
  0.00000000E+00  0.00000000E+00  0.00000000E+00
  0.00000000E+00  0.00000000E+00  0.00000000E+00
  0.00000000E+00  0.00000000E+00  0.00000000E+00
  0.00000000E+00  0.00000000E+00  0.00000000E+00
  0.00000000E+00  0.00000000E+00  0.00000000E+00
  0.00000000E+00  0.00000000E+00  0.00000000E+00
  0.00000000E+00  0.00000000E+00  0.00000000E+00
  0.00000000E+00  0.00000000E+00  0.00000000E+00
  0.00000000E+00  0.00000000E+00  0.00000000E+00
  0.00000000E+00  0.00000000E+00  0.00000000E+00
  0.00000000E+00  0.00000000E+00  0.00000000E+00
  0.00000000E+00  0.00000000E+00  0.00000000E+00
  0.00000000E+00  0.00000000E+00  0.00000000E+00
  0.00000000E+00  0.00000000E+00  0.00000000E+00
  0.00000000E+00  0.00000000E+00  0.00000000E+00
  0.00000000E+00  0.00000000E+00  0.00000000E+00
  0.00000000E+00  0.00000000E+00  0.00000000E+00
  0.00000000E+00  0.00000000E+00  0.00000000E+00
  0.00000000E+00  0.00000000E+00  0.00000000E+00
  0.00000000E+00  0.00000000E+00  0.00000000E+00
  0.00000000E+00  0.00000000E+00  0.00000000E+00
  0.00000000E+00  0.00000000E+00  0.00000000E+00
  0.00000000E+00  0.00000000E+00  0.00000000E+00
  0.00000000E+00  0.00000000E+00  0.00000000E+00
  0.00000000E+00  0.00000000E+00  0.00000000E+00
  0.00000000E+00  0.00000000E+00  0.00000000E+00
  0.00000000E+00  0.00000000E+00  0.00000000E+00
  0.00000000E+00  0.00000000E+00  0.00000000E+00
  0.00000000E+00  0.00000000E+00  0.00000000E+00
  0.00000000E+00  0.00000000E+00  0.00000000E+00
  0.00000000E+00  0.00000000E+00  0.00000000E+00
  0.00000000E+00  0.00000000E+00  0.00000000E+00
  0.00000000E+00  0.00000000E+00  0.00000000E+00
  0.00000000E+00  0.00000000E+00  0.00000000E+00
  0.00000000E+00  0.00000000E+00  0.00000000E+00
  0.00000000E+00  0.00000000E+00  0.00000000E+00
  0.00000000E+00  0.00000000E+00  0.00000000E+00
  0.00000000E+00  0.00000000E+00  0.00000000E+00
  0.00000000E+00  0.00000000E+00  0.00000000E+00
  0.00000000E+00  0.00000000E+00  0.00000000E+00
  0.00000000E+00  0.00000000E+00  0.00000000E+00
  0.00000000E+00  0.00000000E+00  0.00000000E+00
  0.00000000E+00  0.00000000E+00  0.00000000E+00
  0.00000000E+00  0.00000000E+00  0.00000000E+00
  0.00000000E+00  0.00000000E+00  0.00000000E+00
  0.00000000E+00  0.00000000E+00  0.00000000E+00
  0.00000000E+00  0.00000000E+00  0.00000000E+00
  0.00000000E+00  0.00000000E+00  0.00000000E+00
  0.00000000E+00  0.00000000E+00  0.00000000E+00
  0.00000000E+00  0.00000000E+00  0.00000000E+00
  0.00000000E+00  0.00000000E+00  0.00000000E+00
  0.00000000E+00  0.00000000E+00  0.00000000E+00
  0.00000000E+00  0.00000000E+00  0.00000000E+00
  0.00000000E+00  0.00000000E+00  0.00000000E+00
  0.00000000E+00  0.00000000E+00  0.00000000E+00
  0.00000000E+00  0.00000000E+00  0.00000000E+00
  0.00000000E+00  0.00000000E+00  0.00000000E+00
  0.00000000E+00  0.00000000E+00  0.00000000E+00
  0.00000000E+00  0.00000000E+00  0.00000000E+00
  0.00000000E+00  0.00000000E+00  0.00000000E+00
  0.00000000E+00  0.00000000E+00  0.00000000E+00
  0.00000000E+00  0.00000000E+00  0.00000000E+00
  0.00000000E+00  0.00000000E+00  0.00000000E+00
  0.00000000E+00  0.00000000E+00  0.00000000E+00
  0.00000000E+00  0.00000000E+00  0.00000000E+00
  0.00000000E+00  0.00000000E+00  0.00000000E+00
  0.00000000E+00  0.00000000E+00  0.00000000E+00
  0.00000000E+00  0.00000000E+00  0.00000000E+00
  0.00000000E+00  0.00000000E+00  0.00000000E+00
  0.00000000E+00  0.00000000E+00  0.00000000E+00
  0.00000000E+00  0.00000000E+00  0.00000000E+00
  0.00000000E+00  0.00000000E+00  0.00000000E+00
  0.00000000E+00  0.00000000E+00  0.00000000E+00
  0.00000000E+00  0.00000000E+00  0.00000000E+00
  0.00000000E+00  0.00000000E+00  0.00000000E+00
  0.00000000E+00  0.00000000E+00  0.00000000E+00
  0.00000000E+00  0.00000000E+00  0.00000000E+00
  0.00000000E+00  0.00000000E+00  0.00000000E+00
  0.00000000E+00  0.00000000E+00  0.00000000E+00
  0.00000000E+00  0.00000000E+00  0.00000000E+00
  0.00000000E+00  0.00000000E+00  0.00000000E+00
  0.00000000E+00  0.00000000E+00  0.00000000E+00
  0.00000000E+00  0.00000000E+00  0.00000000E+00
  0.00000000E+00  0.00000000E+00  0.00000000E+00
  0.00000000E+00  0.00000000E+00  0.00000000E+00
  0.00000000E+00  0.00000000E+00  0.00000000E+00
  0.00000000E+00  0.00000000E+00  0.00000000E+00
  0.00000000E+00  0.00000000E+00  0.00000000E+00
  0.00000000E+00  0.00000000E+00  0.00000000E+00
  0.00000000E+00  0.00000000E+00  0.00000000E+00
  0.00000000E+00  0.00000000E+00  0.00000000E+00
  0.00000000E+00  0.00000000E+00  0.00000000E+00
  0.00000000E+00  0.00000000E+00  0.00000000E+00
  0.00000000E+00  0.00000000E+00  0.00000000E+00
  0.00000000E+00  0.00000000E+00  0.00000000E+00
  0.00000000E+00  0.00000000E+00  0.00000000E+00
  0.00000000E+00  0.00000000E+00  0.00000000E+00
  0.00000000E+00  0.00000000E+00  0.00000000E+00
  0.00000000E+00  0.00000000E+00  0.00000000E+00
  0.00000000E+00  0.00000000E+00  0.00000000E+00
  0.00000000E+00  0.00000000E+00  0.00000000E+00
  0.00000000E+00  0.00000000E+00  0.00000000E+00
  0.00000000E+00  0.00000000E+00  0.00000000E+00
  0.00000000E+00  0.00000000E+00  0.00000000E+00
  0.00000000E+00  0.00000000E+00  0.00000000E+00
  0.00000000E+00  0.00000000E+00  0.00000000E+00
  0.00000000E+00  0.00000000E+00  0.00000000E+00
  0.00000000E+00  0.00000000E+00  0.00000000E+00
  0.00000000E+00  0.00000000E+00  0.00000000E+00
  0.00000000E+00  0.00000000E+00  0.00000000E+00
  0.00000000E+00  0.00000000E+00  0.00000000E+00
  0.00000000E+00  0.00000000E+00  0.00000000E+00
  0.00000000E+00  0.00000000E+00  0.00000000E+00
  0.00000000E+00  0.00000000E+00  0.00000000E+00
  0.00000000E+00  0.00000000E+00  0.00000000E+00
  0.00000000E+00  0.00000000E+00  0.00000000E+00
  0.00000000E+00  0.00000000E+00  0.00000000E+00
  0.00000000E+00  0.00000000E+00  0.00000000E+00
  0.00000000E+00  0.00000000E+00  0.00000000E+00
  0.00000000E+00  0.00000000E+00  0.00000000E+00
  0.00000000E+00  0.00000000E+00  0.00000000E+00
  0.00000000E+00  0.00000000E+00  0.00000000E+00
  0.00000000E+00  0.00000000E+00  0.00000000E+00
  0.00000000E+00  0.00000000E+00  0.00000000E+00
  0.00000000E+00  0.00000000E+00  0.00000000E+00
  0.00000000E+00  0.00000000E+00  0.00000000E+00
  0.00000000E+00  0.00000000E+00  0.00000000E+00
  0.00000000E+00  0.00000000E+00  0.00000000E+00
  0.00000000E+00  0.00000000E+00  0.00000000E+00
  0.00000000E+00  0.00000000E+00  0.00000000E+00
  0.00000000E+00  0.00000000E+00  0.00000000E+00
