Na2 Mn48 Co48 S1                        
   1.00000000000000     
     9.9475087679858625    0.0000000000000000   -0.0642715153651900
     4.9334962509818583    8.6928626692229010   -0.1434234665729407
     0.0000000000000000    0.0000000000000000   24.4783711218720370
   Na   Mn   Co   S 
     2    48    48     1
Selective dynamics
Direct
  0.6121953636194291  0.9565743147866517  0.8158717364783669   T   T   T
 -0.0119827264884814  0.1276046246358699  0.8137391172340602   T   T   T
  0.1251009893290203  0.3747980213419595  0.3750504946645137   F   F   F
  0.1251009893290203  0.8747980213419595  0.3750504946645137   F   F   F
  0.6251009893290203  0.3747980213419595  0.3750504946645137   F   F   F
  0.6251009893290203  0.8747980213419595  0.3750504946645137   F   F   F
  0.2917676559956845  0.0414646880086238  0.4583838279978423   F   F   F
  0.2917676559956845  0.5414646880086238  0.4583838279978423   F   F   F
  0.7917676559956845  0.0414646880086238  0.4583838279978423   F   F   F
  0.7917676559956845  0.5414646880086238  0.4583838279978423   F   F   F
  0.4584343226623560  0.2081313546752881  0.2917171613311780   F   F   F
  0.4584343226623560  0.7081313546752881  0.2917171613311780   F   F   F
  0.9584343226623560  0.2081313546752881  0.2917171613311780   F   F   F
  0.9584343226623560  0.7081313546752881  0.2917171613311780   F   F   F
  0.3748990106709797  0.1252019786580405  0.3749495053354863   F   F   F
  0.3748990106709797  0.6252019786580405  0.3749495053354863   F   F   F
  0.8748990106709797  0.1252019786580405  0.3749495053354863   F   F   F
  0.8748990106709797  0.6252019786580405  0.3749495053354863   F   F   F
  0.0415656773376440  0.2918686453247119  0.4582828386688220   F   F   F
  0.0415656773376440  0.7918686453247119  0.4582828386688220   F   F   F
  0.5415656773376440  0.2918686453247119  0.4582828386688220   F   F   F
  0.5415656773376440  0.7918686453247119  0.4582828386688220   F   F   F
  0.2082323440043155  0.4585353119913762  0.2916161720021577   F   F   F
  0.2082323440043155  0.9585353119913762  0.2916161720021577   F   F   F
  0.7082323440043155  0.4585353119913762  0.2916161720021577   F   F   F
  0.7082323440043155  0.9585353119913762  0.2916161720021577   F   F   F
  0.1285262954079694  0.3817395857583946  0.6240515161937935   T   T   T
  0.1251752499616564  0.8789239946787057  0.6278311952651336   T   T   T
  0.6218305125413439  0.3745134048507224  0.6256658298197184   T   T   T
  0.6243061394908660  0.8865927309773918  0.6241736990537848   T   T   T
  0.2905197453235964  0.0589748030792757  0.7160537142023456   T   T   T
  0.2912741749800667  0.5474154084665687  0.7132482837830392   T   T   T
  0.7898138318014859  0.0510972414173975  0.7113713965859455   T   T   T
  0.7953564175178761  0.5470026976149585  0.7049064681453552   T   T   T
  0.4584343226623560  0.2081313546752881  0.5417171613311780   F   F   F
  0.4584343226623560  0.7081313546752881  0.5417171613311780   F   F   F
  0.9584343226623560  0.2081313546752881  0.5417171613311780   F   F   F
  0.9584343226623560  0.7081313546752881  0.5417171613311780   F   F   F
  0.3778125452042977  0.1291115573744006  0.6247500078621815   T   T   T
  0.3793238205544618  0.6323659082194071  0.6251600644817088   T   T   T
  0.8747721101640689  0.1315341348209399  0.6249412555544936   T   T   T
  0.8765332049691020  0.6271404520589544  0.6264381292103985   T   T   T
  0.0286131643808895  0.3120956842962750  0.7061414618231237   T   T   T
  0.0368548133775365  0.8009605266715145  0.7032889372133965   T   T   T
  0.5422793903229770  0.2943311851027254  0.7022620578753607   T   T   T
  0.5475346495516543  0.7888824126444575  0.7116678183933627   T   T   T
  0.2082323440043155  0.4585353119913762  0.5416161720021577   F   F   F
  0.2082323440043155  0.9585353119913762  0.5416161720021577   F   F   F
  0.7082323440043155  0.4585353119913762  0.5416161720021577   F   F   F
  0.7082323440043155  0.9585353119913762  0.5416161720021577   F   F   F
  0.4583946692454859  0.4582106615090282  0.2916973346227394   F   F   F
  0.4583946692454859  0.9582106615090282  0.2916973346227394   F   F   F
  0.9583946692454859  0.4582106615090282  0.2916973346227394   F   F   F
  0.9583946692454859  0.9582106615090282  0.2916973346227394   F   F   F
  0.1250613359121502  0.1248773281756925  0.3750306679560751   F   F   F
  0.1250613359121502  0.6248773281756925  0.3750306679560751   F   F   F
  0.6250613359121502  0.1248773281756925  0.3750306679560751   F   F   F
  0.6250613359121502  0.6248773281756925  0.3750306679560751   F   F   F
  0.2917280025788216  0.2915439948423639  0.4583640012894108   F   F   F
  0.2917280025788216  0.7915439948423639  0.4583640012894108   F   F   F
  0.7917280025788216  0.2915439948423639  0.4583640012894108   F   F   F
  0.7917280025788216  0.7915439948423639  0.4583640012894108   F   F   F
  0.3749386640878498  0.3751226718243075  0.3749693320439249   F   F   F
  0.3749386640878498  0.8751226718243075  0.3749693320439249   F   F   F
  0.8749386640878498  0.3751226718243075  0.3749693320439249   F   F   F
  0.8749386640878498  0.8751226718243075  0.3749693320439249   F   F   F
  0.0416053307545141  0.0417893384909718  0.4583026653772535   F   F   F
  0.0416053307545141  0.5417893384909718  0.4583026653772535   F   F   F
  0.5416053307545141  0.0417893384909718  0.4583026653772535   F   F   F
  0.5416053307545141  0.5417893384909718  0.4583026653772535   F   F   F
  0.2082719974211784  0.2084560051576361  0.2916359987105892   F   F   F
  0.2082719974211784  0.7084560051576361  0.2916359987105892   F   F   F
  0.7082719974211784  0.2084560051576361  0.2916359987105892   F   F   F
  0.7082719974211784  0.7084560051576361  0.2916359987105892   F   F   F
  0.4583946692454859  0.4582106615090282  0.5416973346227394   F   F   F
  0.4583946692454859  0.9582106615090282  0.5416973346227394   F   F   F
  0.9583946692454859  0.4582106615090282  0.5416973346227394   F   F   F
  0.9583946692454859  0.9582106615090282  0.5416973346227394   F   F   F
  0.1255106861720115  0.1336454102716987  0.6237702881336622   T   T   T
  0.1246011023605546  0.6347843392812328  0.6240753604186454   T   T   T
  0.6342149043363041  0.1296198073931709  0.6241556092690944   T   T   T
  0.6241733269764062  0.6314506311211320  0.6244911973261050   T   T   T
  0.2873225054766556  0.2999565789090717  0.7020693995435898   T   T   T
  0.2874243714632734  0.7976857466208923  0.7073560098365712   T   T   T
  0.7860799862770496  0.2956706820754869  0.7032858004556942   T   T   T
  0.7938471397930413  0.7961853833734743  0.7043884578707721   T   T   T
  0.3781773252310500  0.3824293160823868  0.6224504892092968   T   T   T
  0.3736588261841355  0.8782673967968689  0.6239129651332471   T   T   T
  0.8753414161892481  0.3781549075742034  0.6224324513913304   T   T   T
  0.8743152955264674  0.8834968104007529  0.6238339590795851   T   T   T
  0.0328953163663315  0.0492409834372128  0.7022743841862660   T   T   T
  0.0428368085870131  0.5475459284164573  0.7056397659380581   T   T   T
  0.5424085508344691  0.0543233001553645  0.7041922274735162   T   T   T
  0.5420307832860424  0.5380961486892014  0.7030733731944283   T   T   T
  0.2082719974211784  0.2084560051576361  0.5416359987105892   F   F   F
  0.2082719974211784  0.7084560051576361  0.5416359987105892   F   F   F
  0.7082719974211784  0.2084560051576361  0.5416359987105892   F   F   F
  0.7082719974211784  0.7084560051576361  0.5416359987105892   F   F   F
  0.3211237966117514 -0.0647084303829347  0.8011334563559050   T   T   T
 
  0.00000000E+00  0.00000000E+00  0.00000000E+00
  0.00000000E+00  0.00000000E+00  0.00000000E+00
  0.00000000E+00  0.00000000E+00  0.00000000E+00
  0.00000000E+00  0.00000000E+00  0.00000000E+00
  0.00000000E+00  0.00000000E+00  0.00000000E+00
  0.00000000E+00  0.00000000E+00  0.00000000E+00
  0.00000000E+00  0.00000000E+00  0.00000000E+00
  0.00000000E+00  0.00000000E+00  0.00000000E+00
  0.00000000E+00  0.00000000E+00  0.00000000E+00
  0.00000000E+00  0.00000000E+00  0.00000000E+00
  0.00000000E+00  0.00000000E+00  0.00000000E+00
  0.00000000E+00  0.00000000E+00  0.00000000E+00
  0.00000000E+00  0.00000000E+00  0.00000000E+00
  0.00000000E+00  0.00000000E+00  0.00000000E+00
  0.00000000E+00  0.00000000E+00  0.00000000E+00
  0.00000000E+00  0.00000000E+00  0.00000000E+00
  0.00000000E+00  0.00000000E+00  0.00000000E+00
  0.00000000E+00  0.00000000E+00  0.00000000E+00
  0.00000000E+00  0.00000000E+00  0.00000000E+00
  0.00000000E+00  0.00000000E+00  0.00000000E+00
  0.00000000E+00  0.00000000E+00  0.00000000E+00
  0.00000000E+00  0.00000000E+00  0.00000000E+00
  0.00000000E+00  0.00000000E+00  0.00000000E+00
  0.00000000E+00  0.00000000E+00  0.00000000E+00
  0.00000000E+00  0.00000000E+00  0.00000000E+00
  0.00000000E+00  0.00000000E+00  0.00000000E+00
  0.00000000E+00  0.00000000E+00  0.00000000E+00
  0.00000000E+00  0.00000000E+00  0.00000000E+00
  0.00000000E+00  0.00000000E+00  0.00000000E+00
  0.00000000E+00  0.00000000E+00  0.00000000E+00
  0.00000000E+00  0.00000000E+00  0.00000000E+00
  0.00000000E+00  0.00000000E+00  0.00000000E+00
  0.00000000E+00  0.00000000E+00  0.00000000E+00
  0.00000000E+00  0.00000000E+00  0.00000000E+00
  0.00000000E+00  0.00000000E+00  0.00000000E+00
  0.00000000E+00  0.00000000E+00  0.00000000E+00
  0.00000000E+00  0.00000000E+00  0.00000000E+00
  0.00000000E+00  0.00000000E+00  0.00000000E+00
  0.00000000E+00  0.00000000E+00  0.00000000E+00
  0.00000000E+00  0.00000000E+00  0.00000000E+00
  0.00000000E+00  0.00000000E+00  0.00000000E+00
  0.00000000E+00  0.00000000E+00  0.00000000E+00
  0.00000000E+00  0.00000000E+00  0.00000000E+00
  0.00000000E+00  0.00000000E+00  0.00000000E+00
  0.00000000E+00  0.00000000E+00  0.00000000E+00
  0.00000000E+00  0.00000000E+00  0.00000000E+00
  0.00000000E+00  0.00000000E+00  0.00000000E+00
  0.00000000E+00  0.00000000E+00  0.00000000E+00
  0.00000000E+00  0.00000000E+00  0.00000000E+00
  0.00000000E+00  0.00000000E+00  0.00000000E+00
  0.00000000E+00  0.00000000E+00  0.00000000E+00
  0.00000000E+00  0.00000000E+00  0.00000000E+00
  0.00000000E+00  0.00000000E+00  0.00000000E+00
  0.00000000E+00  0.00000000E+00  0.00000000E+00
  0.00000000E+00  0.00000000E+00  0.00000000E+00
  0.00000000E+00  0.00000000E+00  0.00000000E+00
  0.00000000E+00  0.00000000E+00  0.00000000E+00
  0.00000000E+00  0.00000000E+00  0.00000000E+00
  0.00000000E+00  0.00000000E+00  0.00000000E+00
  0.00000000E+00  0.00000000E+00  0.00000000E+00
  0.00000000E+00  0.00000000E+00  0.00000000E+00
  0.00000000E+00  0.00000000E+00  0.00000000E+00
  0.00000000E+00  0.00000000E+00  0.00000000E+00
  0.00000000E+00  0.00000000E+00  0.00000000E+00
  0.00000000E+00  0.00000000E+00  0.00000000E+00
  0.00000000E+00  0.00000000E+00  0.00000000E+00
  0.00000000E+00  0.00000000E+00  0.00000000E+00
  0.00000000E+00  0.00000000E+00  0.00000000E+00
  0.00000000E+00  0.00000000E+00  0.00000000E+00
  0.00000000E+00  0.00000000E+00  0.00000000E+00
  0.00000000E+00  0.00000000E+00  0.00000000E+00
  0.00000000E+00  0.00000000E+00  0.00000000E+00
  0.00000000E+00  0.00000000E+00  0.00000000E+00
  0.00000000E+00  0.00000000E+00  0.00000000E+00
  0.00000000E+00  0.00000000E+00  0.00000000E+00
  0.00000000E+00  0.00000000E+00  0.00000000E+00
  0.00000000E+00  0.00000000E+00  0.00000000E+00
  0.00000000E+00  0.00000000E+00  0.00000000E+00
  0.00000000E+00  0.00000000E+00  0.00000000E+00
  0.00000000E+00  0.00000000E+00  0.00000000E+00
  0.00000000E+00  0.00000000E+00  0.00000000E+00
  0.00000000E+00  0.00000000E+00  0.00000000E+00
  0.00000000E+00  0.00000000E+00  0.00000000E+00
  0.00000000E+00  0.00000000E+00  0.00000000E+00
  0.00000000E+00  0.00000000E+00  0.00000000E+00
  0.00000000E+00  0.00000000E+00  0.00000000E+00
  0.00000000E+00  0.00000000E+00  0.00000000E+00
  0.00000000E+00  0.00000000E+00  0.00000000E+00
  0.00000000E+00  0.00000000E+00  0.00000000E+00
  0.00000000E+00  0.00000000E+00  0.00000000E+00
  0.00000000E+00  0.00000000E+00  0.00000000E+00
  0.00000000E+00  0.00000000E+00  0.00000000E+00
  0.00000000E+00  0.00000000E+00  0.00000000E+00
  0.00000000E+00  0.00000000E+00  0.00000000E+00
  0.00000000E+00  0.00000000E+00  0.00000000E+00
  0.00000000E+00  0.00000000E+00  0.00000000E+00
  0.00000000E+00  0.00000000E+00  0.00000000E+00
  0.00000000E+00  0.00000000E+00  0.00000000E+00
  0.00000000E+00  0.00000000E+00  0.00000000E+00
