Na2 Zn96 S4                             
    1.000000000000000     
    10.5852331993876536    0.0000000000000000    0.0000000000000006
     2.6463082998469130   10.8709891436155033    4.5835404278260663
     0.0000000000000000    0.0000000000000000   27.5012425669564209
   Na   Zn   S 
     2    96     4
Selective dynamics
Direct
  0.4862517399844097  0.0385232813163105  0.8435918002103679   T   T   T
  0.1982691893636205  0.2448460596784546  0.8444221454256247   T   T   T
  0.1562500000000000  0.3750000000000000  0.2986111111111143   F   F   F
  0.1562500000000000  0.8750000000000000  0.2986111111111143   F   F   F
  0.4062500000000000  0.3750000000000000  0.2986111111111143   F   F   F
  0.4062500000000000  0.8750000000000000  0.2986111111111143   F   F   F
  0.6562500000000000  0.3750000000000000  0.2986111111111143   F   F   F
  0.6562500000000000  0.8750000000000000  0.2986111111111143   F   F   F
  0.9062500000000000  0.3750000000000000  0.2986111111111143   F   F   F
  0.9062500000000000  0.8750000000000000  0.2986111111111143   F   F   F
  0.0312500000000000  0.3750000000000000  0.3819444444444429   F   F   F
  0.0312500000000000  0.8750000000000000  0.3819444444444429   F   F   F
  0.2812500000000000  0.3750000000000000  0.3819444444444429   F   F   F
  0.2812500000000000  0.8750000000000000  0.3819444444444429   F   F   F
  0.5312500000000000  0.3750000000000000  0.3819444444444429   F   F   F
  0.5312500000000000  0.8750000000000000  0.3819444444444429   F   F   F
  0.7812500000000000  0.3750000000000000  0.3819444444444429   F   F   F
  0.7812500000000000  0.8750000000000000  0.3819444444444429   F   F   F
  0.0937500000000000  0.1250000000000000  0.3680555555555571   F   F   F
  0.0937500000000000  0.6250000000000000  0.3680555555555571   F   F   F
  0.3437500000000000  0.1250000000000000  0.3680555555555571   F   F   F
  0.3437500000000000  0.6250000000000000  0.3680555555555571   F   F   F
  0.5937500000000000  0.1250000000000000  0.3680555555555571   F   F   F
  0.5937500000000000  0.6250000000000000  0.3680555555555571   F   F   F
  0.8437500000000000  0.1250000000000000  0.3680555555555571   F   F   F
  0.8437500000000000  0.6250000000000000  0.3680555555555571   F   F   F
  0.2187500000000000  0.1250000000000000  0.2847222222222214   F   F   F
  0.2187500000000000  0.6250000000000000  0.2847222222222214   F   F   F
  0.4687500000000000  0.1250000000000000  0.2847222222222214   F   F   F
  0.4687500000000000  0.6250000000000000  0.2847222222222214   F   F   F
  0.7187500000000000  0.1250000000000000  0.2847222222222214   F   F   F
  0.7187500000000000  0.6250000000000000  0.2847222222222214   F   F   F
  0.9687500000000000  0.1250000000000000  0.2847222222222214   F   F   F
  0.9687500000000000  0.6250000000000000  0.2847222222222214   F   F   F
  0.1562500000000000  0.3750000000000000  0.4652777777777786   F   F   F
  0.1562500000000000  0.8750000000000000  0.4652777777777786   F   F   F
  0.4062500000000000  0.3750000000000000  0.4652777777777786   F   F   F
  0.4062500000000000  0.8750000000000000  0.4652777777777786   F   F   F
  0.6562500000000000  0.3750000000000000  0.4652777777777786   F   F   F
  0.6562500000000000  0.8750000000000000  0.4652777777777786   F   F   F
  0.9062500000000000  0.3750000000000000  0.4652777777777786   F   F   F
  0.9062500000000000  0.8750000000000000  0.4652777777777786   F   F   F
  0.0312500000000000  0.3750000000000000  0.5486111111111143   F   F   F
  0.0312500000000000  0.8750000000000000  0.5486111111111143   F   F   F
  0.2812500000000000  0.3750000000000000  0.5486111111111143   F   F   F
  0.2812500000000000  0.8750000000000000  0.5486111111111143   F   F   F
  0.5312500000000000  0.3750000000000000  0.5486111111111143   F   F   F
  0.5312500000000000  0.8750000000000000  0.5486111111111143   F   F   F
  0.7812500000000000  0.3750000000000000  0.5486111111111143   F   F   F
  0.7812500000000000  0.8750000000000000  0.5486111111111143   F   F   F
  0.0937500000000000  0.1250000000000000  0.5347222222222214   F   F   F
  0.0937500000000000  0.6250000000000000  0.5347222222222214   F   F   F
  0.3437500000000000  0.1250000000000000  0.5347222222222214   F   F   F
  0.3437500000000000  0.6250000000000000  0.5347222222222214   F   F   F
  0.5937500000000000  0.1250000000000000  0.5347222222222214   F   F   F
  0.5937500000000000  0.6250000000000000  0.5347222222222214   F   F   F
  0.8437500000000000  0.1250000000000000  0.5347222222222214   F   F   F
  0.8437500000000000  0.6250000000000000  0.5347222222222214   F   F   F
  0.2187500000000000  0.1250000000000000  0.4513888888888857   F   F   F
  0.2187500000000000  0.6250000000000000  0.4513888888888857   F   F   F
  0.4687500000000000  0.1250000000000000  0.4513888888888857   F   F   F
  0.4687500000000000  0.6250000000000000  0.4513888888888857   F   F   F
  0.7187500000000000  0.1250000000000000  0.4513888888888857   F   F   F
  0.7187500000000000  0.6250000000000000  0.4513888888888857   F   F   F
  0.9687500000000000  0.1250000000000000  0.4513888888888857   F   F   F
  0.9687500000000000  0.6250000000000000  0.4513888888888857   F   F   F
  0.1616598732862330  0.3732482350585636  0.6353704063709384   T   T   T
  0.1512965969038230  0.8831655772491097  0.6316007413432827   T   T   T
  0.4126142778747701  0.3868835591016087  0.6352075808584203   T   T   T
  0.3956379104149806  0.9032429024166638  0.6280211282414320   T   T   T
  0.6724542446517834  0.3330868349843180  0.6472743779354851   T   T   T
  0.6447936711602195  0.8939049220705078  0.6313812107295399   T   T   T
  0.9283832324525034  0.3200396703000504  0.6503011301745049   T   T   T
  0.8999603843665943  0.8878556172637546  0.6324515756038994   T   T   T
  0.0210688653333762  0.4403683932109287  0.7069330878030764   T   T   T
  0.0274242160664189  0.8509819243937258  0.7246745657680294   T   T   T
  0.2683121731862239  0.4261627769888154  0.7116247214121286   T   T   T
  0.2790044640440832  0.8612027178773630  0.7215155278993285   T   T   T
  0.5411153711490071  0.4385308283384505  0.7092935631811141   T   T   T
  0.5245988668246199  0.8671787510627912  0.7220400566088265   T   T   T
  0.7798890634593875  0.4456031698510114  0.7023168584641548   T   T   T
  0.7723624400137049  0.8700088210354946  0.7216870381939093   T   T   T
  0.0894841451341199  0.0551950265033942  0.7174510116871006   T   T   T
  0.1033606113057485  0.6360881376335261  0.7080931522732277   T   T   T
  0.3532326324490024  0.0763621047267039  0.7126894312184847   T   T   T
  0.3466464123137501  0.6581958759393981  0.7003430874266534   T   T   T
  0.5971742586465931  0.0833647426521648  0.7092264367324319   T   T   T
  0.5999946269427234  0.6495599657255670  0.7068376951290609   T   T   T
  0.8419784993453931  0.0851938046872469  0.7082746071452317   T   T   T
  0.8498817381408815  0.6489808071939583  0.7063095307125362   T   T   T
  0.2100937919068673  0.1344976539548083  0.6205065092405497   T   T   T
  0.2170411726106563  0.6427307950318969  0.6154634834300793   T   T   T
  0.4538077448250687  0.1569937415935118  0.6163443456454375   T   T   T
  0.4666747872770193  0.6460584079138278  0.6142036398991011   T   T   T
  0.7149538474399758  0.1184849977534917  0.6180798007749215   T   T   T
  0.7115397782023416  0.6613777804587078  0.6118271413738725   T   T   T
  0.9704288744380242  0.1117613656345181  0.6200985493429882   T   T   T
  0.9623267743439793  0.6577373705247122  0.6133048804491360   T   T   T
  0.2392357557126454  0.0010281788908187  0.8492762212065321   T   T   T
  0.4495306743692377  0.2907649453931879  0.7745571134781034   T   T   T
  0.4469022413184489  0.2711134778849887  0.8538709736368708   T   T   T
  0.1972133577407253  0.1280058895594387  0.7706133437072124   T   T   T
 
  0.00000000E+00  0.00000000E+00  0.00000000E+00
  0.00000000E+00  0.00000000E+00  0.00000000E+00
  0.00000000E+00  0.00000000E+00  0.00000000E+00
  0.00000000E+00  0.00000000E+00  0.00000000E+00
  0.00000000E+00  0.00000000E+00  0.00000000E+00
  0.00000000E+00  0.00000000E+00  0.00000000E+00
  0.00000000E+00  0.00000000E+00  0.00000000E+00
  0.00000000E+00  0.00000000E+00  0.00000000E+00
  0.00000000E+00  0.00000000E+00  0.00000000E+00
  0.00000000E+00  0.00000000E+00  0.00000000E+00
  0.00000000E+00  0.00000000E+00  0.00000000E+00
  0.00000000E+00  0.00000000E+00  0.00000000E+00
  0.00000000E+00  0.00000000E+00  0.00000000E+00
  0.00000000E+00  0.00000000E+00  0.00000000E+00
  0.00000000E+00  0.00000000E+00  0.00000000E+00
  0.00000000E+00  0.00000000E+00  0.00000000E+00
  0.00000000E+00  0.00000000E+00  0.00000000E+00
  0.00000000E+00  0.00000000E+00  0.00000000E+00
  0.00000000E+00  0.00000000E+00  0.00000000E+00
  0.00000000E+00  0.00000000E+00  0.00000000E+00
  0.00000000E+00  0.00000000E+00  0.00000000E+00
  0.00000000E+00  0.00000000E+00  0.00000000E+00
  0.00000000E+00  0.00000000E+00  0.00000000E+00
  0.00000000E+00  0.00000000E+00  0.00000000E+00
  0.00000000E+00  0.00000000E+00  0.00000000E+00
  0.00000000E+00  0.00000000E+00  0.00000000E+00
  0.00000000E+00  0.00000000E+00  0.00000000E+00
  0.00000000E+00  0.00000000E+00  0.00000000E+00
  0.00000000E+00  0.00000000E+00  0.00000000E+00
  0.00000000E+00  0.00000000E+00  0.00000000E+00
  0.00000000E+00  0.00000000E+00  0.00000000E+00
  0.00000000E+00  0.00000000E+00  0.00000000E+00
  0.00000000E+00  0.00000000E+00  0.00000000E+00
  0.00000000E+00  0.00000000E+00  0.00000000E+00
  0.00000000E+00  0.00000000E+00  0.00000000E+00
  0.00000000E+00  0.00000000E+00  0.00000000E+00
  0.00000000E+00  0.00000000E+00  0.00000000E+00
  0.00000000E+00  0.00000000E+00  0.00000000E+00
  0.00000000E+00  0.00000000E+00  0.00000000E+00
  0.00000000E+00  0.00000000E+00  0.00000000E+00
  0.00000000E+00  0.00000000E+00  0.00000000E+00
  0.00000000E+00  0.00000000E+00  0.00000000E+00
  0.00000000E+00  0.00000000E+00  0.00000000E+00
  0.00000000E+00  0.00000000E+00  0.00000000E+00
  0.00000000E+00  0.00000000E+00  0.00000000E+00
  0.00000000E+00  0.00000000E+00  0.00000000E+00
  0.00000000E+00  0.00000000E+00  0.00000000E+00
  0.00000000E+00  0.00000000E+00  0.00000000E+00
  0.00000000E+00  0.00000000E+00  0.00000000E+00
  0.00000000E+00  0.00000000E+00  0.00000000E+00
  0.00000000E+00  0.00000000E+00  0.00000000E+00
  0.00000000E+00  0.00000000E+00  0.00000000E+00
  0.00000000E+00  0.00000000E+00  0.00000000E+00
  0.00000000E+00  0.00000000E+00  0.00000000E+00
  0.00000000E+00  0.00000000E+00  0.00000000E+00
  0.00000000E+00  0.00000000E+00  0.00000000E+00
  0.00000000E+00  0.00000000E+00  0.00000000E+00
  0.00000000E+00  0.00000000E+00  0.00000000E+00
  0.00000000E+00  0.00000000E+00  0.00000000E+00
  0.00000000E+00  0.00000000E+00  0.00000000E+00
  0.00000000E+00  0.00000000E+00  0.00000000E+00
  0.00000000E+00  0.00000000E+00  0.00000000E+00
  0.00000000E+00  0.00000000E+00  0.00000000E+00
  0.00000000E+00  0.00000000E+00  0.00000000E+00
  0.00000000E+00  0.00000000E+00  0.00000000E+00
  0.00000000E+00  0.00000000E+00  0.00000000E+00
  0.00000000E+00  0.00000000E+00  0.00000000E+00
  0.00000000E+00  0.00000000E+00  0.00000000E+00
  0.00000000E+00  0.00000000E+00  0.00000000E+00
  0.00000000E+00  0.00000000E+00  0.00000000E+00
  0.00000000E+00  0.00000000E+00  0.00000000E+00
  0.00000000E+00  0.00000000E+00  0.00000000E+00
  0.00000000E+00  0.00000000E+00  0.00000000E+00
  0.00000000E+00  0.00000000E+00  0.00000000E+00
  0.00000000E+00  0.00000000E+00  0.00000000E+00
  0.00000000E+00  0.00000000E+00  0.00000000E+00
  0.00000000E+00  0.00000000E+00  0.00000000E+00
  0.00000000E+00  0.00000000E+00  0.00000000E+00
  0.00000000E+00  0.00000000E+00  0.00000000E+00
  0.00000000E+00  0.00000000E+00  0.00000000E+00
  0.00000000E+00  0.00000000E+00  0.00000000E+00
  0.00000000E+00  0.00000000E+00  0.00000000E+00
  0.00000000E+00  0.00000000E+00  0.00000000E+00
  0.00000000E+00  0.00000000E+00  0.00000000E+00
  0.00000000E+00  0.00000000E+00  0.00000000E+00
  0.00000000E+00  0.00000000E+00  0.00000000E+00
  0.00000000E+00  0.00000000E+00  0.00000000E+00
  0.00000000E+00  0.00000000E+00  0.00000000E+00
  0.00000000E+00  0.00000000E+00  0.00000000E+00
  0.00000000E+00  0.00000000E+00  0.00000000E+00
  0.00000000E+00  0.00000000E+00  0.00000000E+00
  0.00000000E+00  0.00000000E+00  0.00000000E+00
  0.00000000E+00  0.00000000E+00  0.00000000E+00
  0.00000000E+00  0.00000000E+00  0.00000000E+00
  0.00000000E+00  0.00000000E+00  0.00000000E+00
  0.00000000E+00  0.00000000E+00  0.00000000E+00
  0.00000000E+00  0.00000000E+00  0.00000000E+00
  0.00000000E+00  0.00000000E+00  0.00000000E+00
  0.00000000E+00  0.00000000E+00  0.00000000E+00
  0.00000000E+00  0.00000000E+00  0.00000000E+00
  0.00000000E+00  0.00000000E+00  0.00000000E+00
  0.00000000E+00  0.00000000E+00  0.00000000E+00
