K2 V8 O19                               
    1.000000000000000     
    11.8630787958297290    0.0000000000000000   -0.1994871253063412
    -0.0000000000000002    3.7325871055216622    0.0000000000000002
     0.1319087230570054   -0.0000000000000000    9.3188862286432972
   K    V    O 
     2     8    19
Direct
  0.4091905501707929  0.0000000000000000  0.5235782120404966
  0.0913508355864019  0.5000000000000000  0.4722739679860842
  0.0638118349047341  0.0000000000000000  0.8488998790929430
  0.9398497482689420  0.0000000000000000  0.1606533895636495
  0.5632894904236992  0.5000000000000000  0.8258623348313073
  0.4380486116044716  0.5000000000000000  0.1449852234191832
  0.7625290886874484  0.0000000000000000  0.8897078633377697
  0.2410130233228647  0.0000000000000000  0.1530408469634119
  0.2646105554802262  0.5000000000000000  0.8446249612085058
  0.7291518793460245  0.5000000000000000  0.1708794707787642
  0.5950657850762315  0.0000000000000000  0.8570671785018379
  0.4104169049817562  0.0000000000000000  0.1210007564146043
  0.0961234090478613  0.5000000000000000  0.8736988103005648
  0.8934433300000016  0.5000000000000000  0.1380461216170140
  0.9235565762864261  0.0000000000000000  0.9169107882458827
  0.0797013623847882  0.0000000000000000  0.1076867577657038
  0.4260757555159850  0.5000000000000000  0.8978815562697219
  0.5891683360212783  0.5000000000000000  0.0932444535053256
  0.2311258545161211  0.0000000000000000  0.8962264710798739
  0.7580547080175755  0.0000000000000000  0.1146092401656571
  0.7364881560014802  0.5000000000000000  0.8550117046432080
  0.2725555271497599  0.5000000000000000  0.1042128981221438
  0.0474596068492640  0.0000000000000000  0.6748718626760236
  0.9488870644877084  0.0000000000000000  0.3354579723156636
  0.5431642100358011  0.5000000000000000  0.6532977376322732
  0.4489329812196255  0.5000000000000000  0.3190813231854276
  0.2265439419855647  0.0000000000000000  0.3297428823393231
  0.2780872325727971  0.5000000000000000  0.6677948296560511
  0.7133276400543764  0.5000000000000000  0.3403005363415998
 
  0.00000000E+00  0.00000000E+00  0.00000000E+00
  0.00000000E+00  0.00000000E+00  0.00000000E+00
  0.00000000E+00  0.00000000E+00  0.00000000E+00
  0.00000000E+00  0.00000000E+00  0.00000000E+00
  0.00000000E+00  0.00000000E+00  0.00000000E+00
  0.00000000E+00  0.00000000E+00  0.00000000E+00
  0.00000000E+00  0.00000000E+00  0.00000000E+00
  0.00000000E+00  0.00000000E+00  0.00000000E+00
  0.00000000E+00  0.00000000E+00  0.00000000E+00
  0.00000000E+00  0.00000000E+00  0.00000000E+00
  0.00000000E+00  0.00000000E+00  0.00000000E+00
  0.00000000E+00  0.00000000E+00  0.00000000E+00
  0.00000000E+00  0.00000000E+00  0.00000000E+00
  0.00000000E+00  0.00000000E+00  0.00000000E+00
  0.00000000E+00  0.00000000E+00  0.00000000E+00
  0.00000000E+00  0.00000000E+00  0.00000000E+00
  0.00000000E+00  0.00000000E+00  0.00000000E+00
  0.00000000E+00  0.00000000E+00  0.00000000E+00
  0.00000000E+00  0.00000000E+00  0.00000000E+00
  0.00000000E+00  0.00000000E+00  0.00000000E+00
  0.00000000E+00  0.00000000E+00  0.00000000E+00
  0.00000000E+00  0.00000000E+00  0.00000000E+00
  0.00000000E+00  0.00000000E+00  0.00000000E+00
  0.00000000E+00  0.00000000E+00  0.00000000E+00
  0.00000000E+00  0.00000000E+00  0.00000000E+00
  0.00000000E+00  0.00000000E+00  0.00000000E+00
  0.00000000E+00  0.00000000E+00  0.00000000E+00
  0.00000000E+00  0.00000000E+00  0.00000000E+00
  0.00000000E+00  0.00000000E+00  0.00000000E+00
