K2 V8 Zn1 O19                           
    1.000000000000000     
    11.9792599621594427    0.0000000000000000   -0.1008807446464837
     0.0000000000000000    3.7845561948982054    0.0000000000000000
    -0.0591712043281136    0.0000000000000000    9.1513434619480378
   Zn   K    V    O 
     1     2     8    19
Direct
  0.7167433891309656  0.5000000000000000  0.5571983365232430
  0.4136719236320052  0.0000000000000000  0.5345954651912764
  0.1070408715389798  0.5000000000000000  0.4676462131745885
  0.0736491057495104  0.0000000000000000  0.8345401748761060
  0.9428802538387862  0.0000000000000000  0.1656448868418444
  0.5707178913874825  0.5000000000000000  0.8528945292969108
  0.4386816787674979  0.5000000000000000  0.1513123027698088
  0.7724456622077853  0.0000000000000000  0.9000672919170625
  0.2430479146997325  0.0000000000000000  0.1411034241898014
  0.2667268034258500  0.5000000000000000  0.8420426984182956
  0.7360103470152930  0.5000000000000000  0.1664164704586748
  0.6092658740445407  0.0000000000000000  0.8632464383058364
  0.4098531533532389  0.0000000000000000  0.1246306575449859
  0.1064071740050149  0.5000000000000000  0.8689846684893032
  0.8998882648696349  0.5000000000000000  0.1440415556550988
  0.9143197397855678  0.0000000000000000  0.8838205013650107
  0.0759674979668661  0.0000000000000000  0.0972326533121958
  0.4295198828821704  0.5000000000000000  0.8880721321859106
  0.5801241446851608  0.5000000000000000  0.0896104872295288
  0.2405461526607383  0.0000000000000000  0.8907101182209821
  0.7668519007237546  0.0000000000000000  0.1152084303793334
  0.7375602271509873  0.5000000000000000  0.9107845445231332
  0.2764883753092804  0.5000000000000000  0.0961420916807195
  0.0587310173979054  0.0000000000000000  0.6554717806194924
  0.9575639445069062  0.0000000000000000  0.3421574168846230
  0.5769848684461245  0.5000000000000000  0.6615719313432346
  0.4526258501429789  0.5000000000000000  0.3285895841373685
  0.2285347094143980  0.0000000000000000  0.3205507471194283
  0.2847666411660253  0.5000000000000000  0.6623527742637303
  0.7119821686662317  0.5000000000000000  0.3480837671565690
 
  0.00000000E+00  0.00000000E+00  0.00000000E+00
  0.00000000E+00  0.00000000E+00  0.00000000E+00
  0.00000000E+00  0.00000000E+00  0.00000000E+00
  0.00000000E+00  0.00000000E+00  0.00000000E+00
  0.00000000E+00  0.00000000E+00  0.00000000E+00
  0.00000000E+00  0.00000000E+00  0.00000000E+00
  0.00000000E+00  0.00000000E+00  0.00000000E+00
  0.00000000E+00  0.00000000E+00  0.00000000E+00
  0.00000000E+00  0.00000000E+00  0.00000000E+00
  0.00000000E+00  0.00000000E+00  0.00000000E+00
  0.00000000E+00  0.00000000E+00  0.00000000E+00
  0.00000000E+00  0.00000000E+00  0.00000000E+00
  0.00000000E+00  0.00000000E+00  0.00000000E+00
  0.00000000E+00  0.00000000E+00  0.00000000E+00
  0.00000000E+00  0.00000000E+00  0.00000000E+00
  0.00000000E+00  0.00000000E+00  0.00000000E+00
  0.00000000E+00  0.00000000E+00  0.00000000E+00
  0.00000000E+00  0.00000000E+00  0.00000000E+00
  0.00000000E+00  0.00000000E+00  0.00000000E+00
  0.00000000E+00  0.00000000E+00  0.00000000E+00
  0.00000000E+00  0.00000000E+00  0.00000000E+00
  0.00000000E+00  0.00000000E+00  0.00000000E+00
  0.00000000E+00  0.00000000E+00  0.00000000E+00
  0.00000000E+00  0.00000000E+00  0.00000000E+00
  0.00000000E+00  0.00000000E+00  0.00000000E+00
  0.00000000E+00  0.00000000E+00  0.00000000E+00
  0.00000000E+00  0.00000000E+00  0.00000000E+00
  0.00000000E+00  0.00000000E+00  0.00000000E+00
  0.00000000E+00  0.00000000E+00  0.00000000E+00
  0.00000000E+00  0.00000000E+00  0.00000000E+00
