Na2 Zn96 S8                             
    1.000000000000000     
    10.5852331862242313    0.0000000000000000    0.0000000000000006
     2.6463082965560556   10.8709891499343758    4.5835404221261369
     0.0000000000000000    0.0000000000000000   27.5012425327568408
   Na   Zn   S 
     2    96     8
Selective dynamics
Direct
  0.0602226751205456  0.9361055357207673  0.8841964381784068   T   T   T
  0.3858205606930003  0.9052315641048554  0.8771079088800994   T   T   T
  0.1562500000000000  0.3750000000000000  0.2986111111111143   F   F   F
  0.1562500000000000  0.8750000000000000  0.2986111111111143   F   F   F
  0.4062500000000000  0.3750000000000000  0.2986111111111143   F   F   F
  0.4062500000000000  0.8750000000000000  0.2986111111111143   F   F   F
  0.6562500000000000  0.3750000000000000  0.2986111111111143   F   F   F
  0.6562500000000000  0.8750000000000000  0.2986111111111143   F   F   F
  0.9062500000000000  0.3750000000000000  0.2986111111111143   F   F   F
  0.9062500000000000  0.8750000000000000  0.2986111111111143   F   F   F
  0.0312500000000000  0.3750000000000000  0.3819444444444429   F   F   F
  0.0312500000000000  0.8750000000000000  0.3819444444444429   F   F   F
  0.2812500000000000  0.3750000000000000  0.3819444444444429   F   F   F
  0.2812500000000000  0.8750000000000000  0.3819444444444429   F   F   F
  0.5312500000000000  0.3750000000000000  0.3819444444444429   F   F   F
  0.5312500000000000  0.8750000000000000  0.3819444444444429   F   F   F
  0.7812500000000000  0.3750000000000000  0.3819444444444429   F   F   F
  0.7812500000000000  0.8750000000000000  0.3819444444444429   F   F   F
  0.0937500000000000  0.1250000000000000  0.3680555555555571   F   F   F
  0.0937500000000000  0.6250000000000000  0.3680555555555571   F   F   F
  0.3437500000000000  0.1250000000000000  0.3680555555555571   F   F   F
  0.3437500000000000  0.6250000000000000  0.3680555555555571   F   F   F
  0.5937500000000000  0.1250000000000000  0.3680555555555571   F   F   F
  0.5937500000000000  0.6250000000000000  0.3680555555555571   F   F   F
  0.8437500000000000  0.1250000000000000  0.3680555555555571   F   F   F
  0.8437500000000000  0.6250000000000000  0.3680555555555571   F   F   F
  0.2187500000000000  0.1250000000000000  0.2847222222222214   F   F   F
  0.2187500000000000  0.6250000000000000  0.2847222222222214   F   F   F
  0.4687500000000000  0.1250000000000000  0.2847222222222214   F   F   F
  0.4687500000000000  0.6250000000000000  0.2847222222222214   F   F   F
  0.7187500000000000  0.1250000000000000  0.2847222222222214   F   F   F
  0.7187500000000000  0.6250000000000000  0.2847222222222214   F   F   F
  0.9687500000000000  0.1250000000000000  0.2847222222222214   F   F   F
  0.9687500000000000  0.6250000000000000  0.2847222222222214   F   F   F
  0.1562500000000000  0.3750000000000000  0.4652777777777786   F   F   F
  0.1562500000000000  0.8750000000000000  0.4652777777777786   F   F   F
  0.4062500000000000  0.3750000000000000  0.4652777777777786   F   F   F
  0.4062500000000000  0.8750000000000000  0.4652777777777786   F   F   F
  0.6562500000000000  0.3750000000000000  0.4652777777777786   F   F   F
  0.6562500000000000  0.8750000000000000  0.4652777777777786   F   F   F
  0.9062500000000000  0.3750000000000000  0.4652777777777786   F   F   F
  0.9062500000000000  0.8750000000000000  0.4652777777777786   F   F   F
  0.0312500000000000  0.3750000000000000  0.5486111111111143   F   F   F
  0.0312500000000000  0.8750000000000000  0.5486111111111143   F   F   F
  0.2812500000000000  0.3750000000000000  0.5486111111111143   F   F   F
  0.2812500000000000  0.8750000000000000  0.5486111111111143   F   F   F
  0.5312500000000000  0.3750000000000000  0.5486111111111143   F   F   F
  0.5312500000000000  0.8750000000000000  0.5486111111111143   F   F   F
  0.7812500000000000  0.3750000000000000  0.5486111111111143   F   F   F
  0.7812500000000000  0.8750000000000000  0.5486111111111143   F   F   F
  0.0937500000000000  0.1250000000000000  0.5347222222222214   F   F   F
  0.0937500000000000  0.6250000000000000  0.5347222222222214   F   F   F
  0.3437500000000000  0.1250000000000000  0.5347222222222214   F   F   F
  0.3437500000000000  0.6250000000000000  0.5347222222222214   F   F   F
  0.5937500000000000  0.1250000000000000  0.5347222222222214   F   F   F
  0.5937500000000000  0.6250000000000000  0.5347222222222214   F   F   F
  0.8437500000000000  0.1250000000000000  0.5347222222222214   F   F   F
  0.8437500000000000  0.6250000000000000  0.5347222222222214   F   F   F
  0.2187500000000000  0.1250000000000000  0.4513888888888857   F   F   F
  0.2187500000000000  0.6250000000000000  0.4513888888888857   F   F   F
  0.4687500000000000  0.1250000000000000  0.4513888888888857   F   F   F
  0.4687500000000000  0.6250000000000000  0.4513888888888857   F   F   F
  0.7187500000000000  0.1250000000000000  0.4513888888888857   F   F   F
  0.7187500000000000  0.6250000000000000  0.4513888888888857   F   F   F
  0.9687500000000000  0.1250000000000000  0.4513888888888857   F   F   F
  0.9687500000000000  0.6250000000000000  0.4513888888888857   F   F   F
  0.1597073770718697  0.3559997854488380  0.6373252011107623   T   T   T
  0.1657324373150037  0.8543221141819871  0.6500811224249583   T   T   T
  0.4105529510939688  0.3390882563503552  0.6419483827854314   T   T   T
  0.4062685620041765  0.8776002975060716  0.6364135303099150   T   T   T
  0.6555712319219289  0.3742072591569968  0.6345425629551011   T   T   T
  0.6664021053854056  0.8690772931563951  0.6360993315441308   T   T   T
  0.9086357795805211  0.3721469251038051  0.6355858216053295   T   T   T
  0.9230733661894741  0.8309923328116319  0.6468172344447533   T   T   T
  0.0207717339418514  0.3960911741431470  0.7205785117121836   T   T   T
  0.0323092447950942  0.9018688387969344  0.7273745360321036   T   T   T
  0.2685133644085047  0.4246108344009756  0.7057263453644302   T   T   T
  0.2954261278627012  0.7985548674621266  0.7444524468875106   T   T   T
  0.5146823273657504  0.4290345758397300  0.7067090825014586   T   T   T
  0.5811402227061703  0.8285731721327368  0.7287245929115770   T   T   T
  0.7622503001350348  0.4252707275247261  0.7100317017161252   T   T   T
  0.7694939245970728  0.9485926209327898  0.7007788206124866   T   T   T
  0.0952598935004063  0.1433595693247370  0.7024752220742937   T   T   T
  0.0913717057249364  0.6130460542471976  0.7061221747113759   T   T   T
  0.3640432865425421  0.0982047120765057  0.7047404030990487   T   T   T
  0.3416181008820174  0.6237534333800303  0.7085380452232907   T   T   T
  0.5987311789846470  0.1433293098397036  0.7026726657727121   T   T   T
  0.5905754159502098  0.6289021284553404  0.7105840395746976   T   T   T
  0.8434866476601398  0.1537274848903218  0.7001831555793618   T   T   T
  0.8437105862067928  0.6205019539421153  0.7072093753449153   T   T   T
  0.2213648168918242  0.1078378482630676  0.6229755576996449   T   T   T
  0.2099379690914987  0.6560164696844097  0.6128394446866456   T   T   T
  0.4866471211883577  0.0901034245081435  0.6235984336919983   T   T   T
  0.4610561597666203  0.6535287650878854  0.6141937594206145   T   T   T
  0.7137353481229284  0.1600501194351651  0.6096437609338838   T   T   T
  0.7121560270844179  0.6433805458635256  0.6156029491925238   T   T   T
  0.9738453734777381  0.0657772759684733  0.6284807747803938   T   T   T
  0.9651099870810599  0.6361808622521625  0.6135961276226845   T   T   T
  0.1814548318308726  0.6801093405762529  0.8463508412361169   T   T   T
  0.4224547255934377  0.9005519915763666  0.7760245290350144   T   T   T
  0.2337863712563043  0.0001455968950008  0.9432559030940114   T   T   T
  0.2574760429244389  0.1868612982984326  0.8202191742875958   T   T   T
  0.0000225948271913  0.8059287928458710  0.8149268240550619   T   T   T
  0.2518922061681146  0.7121569502319796  0.9077157288317452   T   T   T
  0.2249363594511746  0.1792799917650171  0.8941243395157863   T   T   T
  0.0724542769178579  0.1813108087973757  0.7834097456501991   T   T   T
 
  0.00000000E+00  0.00000000E+00  0.00000000E+00
  0.00000000E+00  0.00000000E+00  0.00000000E+00
  0.00000000E+00  0.00000000E+00  0.00000000E+00
  0.00000000E+00  0.00000000E+00  0.00000000E+00
  0.00000000E+00  0.00000000E+00  0.00000000E+00
  0.00000000E+00  0.00000000E+00  0.00000000E+00
  0.00000000E+00  0.00000000E+00  0.00000000E+00
  0.00000000E+00  0.00000000E+00  0.00000000E+00
  0.00000000E+00  0.00000000E+00  0.00000000E+00
  0.00000000E+00  0.00000000E+00  0.00000000E+00
  0.00000000E+00  0.00000000E+00  0.00000000E+00
  0.00000000E+00  0.00000000E+00  0.00000000E+00
  0.00000000E+00  0.00000000E+00  0.00000000E+00
  0.00000000E+00  0.00000000E+00  0.00000000E+00
  0.00000000E+00  0.00000000E+00  0.00000000E+00
  0.00000000E+00  0.00000000E+00  0.00000000E+00
  0.00000000E+00  0.00000000E+00  0.00000000E+00
  0.00000000E+00  0.00000000E+00  0.00000000E+00
  0.00000000E+00  0.00000000E+00  0.00000000E+00
  0.00000000E+00  0.00000000E+00  0.00000000E+00
  0.00000000E+00  0.00000000E+00  0.00000000E+00
  0.00000000E+00  0.00000000E+00  0.00000000E+00
  0.00000000E+00  0.00000000E+00  0.00000000E+00
  0.00000000E+00  0.00000000E+00  0.00000000E+00
  0.00000000E+00  0.00000000E+00  0.00000000E+00
  0.00000000E+00  0.00000000E+00  0.00000000E+00
  0.00000000E+00  0.00000000E+00  0.00000000E+00
  0.00000000E+00  0.00000000E+00  0.00000000E+00
  0.00000000E+00  0.00000000E+00  0.00000000E+00
  0.00000000E+00  0.00000000E+00  0.00000000E+00
  0.00000000E+00  0.00000000E+00  0.00000000E+00
  0.00000000E+00  0.00000000E+00  0.00000000E+00
  0.00000000E+00  0.00000000E+00  0.00000000E+00
  0.00000000E+00  0.00000000E+00  0.00000000E+00
  0.00000000E+00  0.00000000E+00  0.00000000E+00
  0.00000000E+00  0.00000000E+00  0.00000000E+00
  0.00000000E+00  0.00000000E+00  0.00000000E+00
  0.00000000E+00  0.00000000E+00  0.00000000E+00
  0.00000000E+00  0.00000000E+00  0.00000000E+00
  0.00000000E+00  0.00000000E+00  0.00000000E+00
  0.00000000E+00  0.00000000E+00  0.00000000E+00
  0.00000000E+00  0.00000000E+00  0.00000000E+00
  0.00000000E+00  0.00000000E+00  0.00000000E+00
  0.00000000E+00  0.00000000E+00  0.00000000E+00
  0.00000000E+00  0.00000000E+00  0.00000000E+00
  0.00000000E+00  0.00000000E+00  0.00000000E+00
  0.00000000E+00  0.00000000E+00  0.00000000E+00
  0.00000000E+00  0.00000000E+00  0.00000000E+00
  0.00000000E+00  0.00000000E+00  0.00000000E+00
  0.00000000E+00  0.00000000E+00  0.00000000E+00
  0.00000000E+00  0.00000000E+00  0.00000000E+00
  0.00000000E+00  0.00000000E+00  0.00000000E+00
  0.00000000E+00  0.00000000E+00  0.00000000E+00
  0.00000000E+00  0.00000000E+00  0.00000000E+00
  0.00000000E+00  0.00000000E+00  0.00000000E+00
  0.00000000E+00  0.00000000E+00  0.00000000E+00
  0.00000000E+00  0.00000000E+00  0.00000000E+00
  0.00000000E+00  0.00000000E+00  0.00000000E+00
  0.00000000E+00  0.00000000E+00  0.00000000E+00
  0.00000000E+00  0.00000000E+00  0.00000000E+00
  0.00000000E+00  0.00000000E+00  0.00000000E+00
  0.00000000E+00  0.00000000E+00  0.00000000E+00
  0.00000000E+00  0.00000000E+00  0.00000000E+00
  0.00000000E+00  0.00000000E+00  0.00000000E+00
  0.00000000E+00  0.00000000E+00  0.00000000E+00
  0.00000000E+00  0.00000000E+00  0.00000000E+00
  0.00000000E+00  0.00000000E+00  0.00000000E+00
  0.00000000E+00  0.00000000E+00  0.00000000E+00
  0.00000000E+00  0.00000000E+00  0.00000000E+00
  0.00000000E+00  0.00000000E+00  0.00000000E+00
  0.00000000E+00  0.00000000E+00  0.00000000E+00
  0.00000000E+00  0.00000000E+00  0.00000000E+00
  0.00000000E+00  0.00000000E+00  0.00000000E+00
  0.00000000E+00  0.00000000E+00  0.00000000E+00
  0.00000000E+00  0.00000000E+00  0.00000000E+00
  0.00000000E+00  0.00000000E+00  0.00000000E+00
  0.00000000E+00  0.00000000E+00  0.00000000E+00
  0.00000000E+00  0.00000000E+00  0.00000000E+00
  0.00000000E+00  0.00000000E+00  0.00000000E+00
  0.00000000E+00  0.00000000E+00  0.00000000E+00
  0.00000000E+00  0.00000000E+00  0.00000000E+00
  0.00000000E+00  0.00000000E+00  0.00000000E+00
  0.00000000E+00  0.00000000E+00  0.00000000E+00
  0.00000000E+00  0.00000000E+00  0.00000000E+00
  0.00000000E+00  0.00000000E+00  0.00000000E+00
  0.00000000E+00  0.00000000E+00  0.00000000E+00
  0.00000000E+00  0.00000000E+00  0.00000000E+00
  0.00000000E+00  0.00000000E+00  0.00000000E+00
  0.00000000E+00  0.00000000E+00  0.00000000E+00
  0.00000000E+00  0.00000000E+00  0.00000000E+00
  0.00000000E+00  0.00000000E+00  0.00000000E+00
  0.00000000E+00  0.00000000E+00  0.00000000E+00
  0.00000000E+00  0.00000000E+00  0.00000000E+00
  0.00000000E+00  0.00000000E+00  0.00000000E+00
  0.00000000E+00  0.00000000E+00  0.00000000E+00
  0.00000000E+00  0.00000000E+00  0.00000000E+00
  0.00000000E+00  0.00000000E+00  0.00000000E+00
  0.00000000E+00  0.00000000E+00  0.00000000E+00
  0.00000000E+00  0.00000000E+00  0.00000000E+00
  0.00000000E+00  0.00000000E+00  0.00000000E+00
  0.00000000E+00  0.00000000E+00  0.00000000E+00
  0.00000000E+00  0.00000000E+00  0.00000000E+00
  0.00000000E+00  0.00000000E+00  0.00000000E+00
  0.00000000E+00  0.00000000E+00  0.00000000E+00
  0.00000000E+00  0.00000000E+00  0.00000000E+00
  0.00000000E+00  0.00000000E+00  0.00000000E+00
