Na2 Ag96 S8                             
   1.00000000000000     
    11.9587698670437579    0.0000000000000000    0.0000000000000007
     5.9793849335218763   10.3565985028717495    0.0000000000000007
     0.0000000000000000    0.0000000000000000   29.2928841256282375
   Na   Ag   S 
     2    96     8
Selective dynamics
Direct
  0.0664558567856940  0.3949187972194430  0.8367395032537255   T   T   T
  0.3021922281832656  0.4171428084499184  0.8889269588071687   T   T   T
  0.0000000000000000  0.0000000000000000  0.4583333333333357   F   F   F
  0.0000000000000000  0.5000000000000000  0.4583333333333357   F   F   F
  0.5000000000000000  0.0000000000000000  0.4583333333333357   F   F   F
  0.5000000000000000  0.5000000000000000  0.4583333333333357   F   F   F
  0.1666666666666643  0.1666666666666643  0.2916666666666643   F   F   F
  0.1666666666666643  0.6666666666666643  0.2916666666666643   F   F   F
  0.6666666666666643  0.1666666666666643  0.2916666666666643   F   F   F
  0.6666666666666643  0.6666666666666643  0.2916666666666643   F   F   F
  0.3333333333333357  0.3333333333333357  0.3750000000000000   F   F   F
  0.3333333333333357  0.8333333333333357  0.3750000000000000   F   F   F
  0.8333333333333357  0.3333333333333357  0.3750000000000000   F   F   F
  0.8333333333333357  0.8333333333333357  0.3750000000000000   F   F   F
  0.4166666666666643  0.4166666666666643  0.2916666666666643   F   F   F
  0.4166666666666643  0.9166666666666643  0.2916666666666643   F   F   F
  0.9166666666666643  0.4166666666666643  0.2916666666666643   F   F   F
  0.9166666666666643  0.9166666666666643  0.2916666666666643   F   F   F
  0.0833333333333357  0.0833333333333357  0.3750000000000000   F   F   F
  0.0833333333333357  0.5833333333333357  0.3750000000000000   F   F   F
  0.5833333333333357  0.0833333333333357  0.3750000000000000   F   F   F
  0.5833333333333357  0.5833333333333357  0.3750000000000000   F   F   F
  0.2500000000000000  0.2500000000000000  0.4583333333333357   F   F   F
  0.2500000000000000  0.7500000000000000  0.4583333333333357   F   F   F
  0.7500000000000000  0.2500000000000000  0.4583333333333357   F   F   F
  0.7500000000000000  0.7500000000000000  0.4583333333333357   F   F   F
  0.1666666666666643  0.4166666666666643  0.2916666666666643   F   F   F
  0.1666666666666643  0.9166666666666643  0.2916666666666643   F   F   F
  0.6666666666666643  0.4166666666666643  0.2916666666666643   F   F   F
  0.6666666666666643  0.9166666666666643  0.2916666666666643   F   F   F
  0.3333333333333357  0.0833333333333357  0.3750000000000000   F   F   F
  0.3333333333333357  0.5833333333333357  0.3750000000000000   F   F   F
  0.8333333333333357  0.0833333333333357  0.3750000000000000   F   F   F
  0.8333333333333357  0.5833333333333357  0.3750000000000000   F   F   F
  0.0000000000000000  0.2500000000000000  0.4583333333333357   F   F   F
  0.0000000000000000  0.7500000000000000  0.4583333333333357   F   F   F
  0.5000000000000000  0.2500000000000000  0.4583333333333357   F   F   F
  0.5000000000000000  0.7500000000000000  0.4583333333333357   F   F   F
  0.4166666666666643  0.1666666666666643  0.2916666666666643   F   F   F
  0.4166666666666643  0.6666666666666643  0.2916666666666643   F   F   F
  0.9166666666666643  0.1666666666666643  0.2916666666666643   F   F   F
  0.9166666666666643  0.6666666666666643  0.2916666666666643   F   F   F
  0.0833333333333357  0.3333333333333357  0.3750000000000000   F   F   F
  0.0833333333333357  0.8333333333333357  0.3750000000000000   F   F   F
  0.5833333333333357  0.3333333333333357  0.3750000000000000   F   F   F
  0.5833333333333357  0.8333333333333357  0.3750000000000000   F   F   F
  0.2500000000000000  0.5000000000000000  0.4583333333333357   F   F   F
  0.2500000000000000  0.0000000000000000  0.4583333333333357   F   F   F
  0.7500000000000000  0.5000000000000000  0.4583333333333357   F   F   F
  0.7500000000000000  0.0000000000000000  0.4583333333333357   F   F   F
 -0.0022678978236919  0.0027463262590753  0.7053987063298787   T   T   T
 -0.0068156181482745  0.5048740470672124  0.7077905012205282   T   T   T
  0.5039813042700221 -0.0002413970952416  0.7052587768314469   T   T   T
  0.5056823880381937  0.5013134684616941  0.7051062264427445   T   T   T
  0.1666666666666643  0.1666666666666643  0.5416666666666643   F   F   F
  0.1666666666666643  0.6666666666666643  0.5416666666666643   F   F   F
  0.6666666666666643  0.1666666666666643  0.5416666666666643   F   F   F
  0.6666666666666643  0.6666666666666643  0.5416666666666643   F   F   F
  0.3327968443436988  0.3322302411920239  0.6242744735482586   T   T   T
  0.3311640886072652  0.8384312505332949  0.6244972201721960   T   T   T
  0.8331875039931338  0.3343736760961112  0.6230880182161569   T   T   T
  0.8355419506893996  0.8328873556257230  0.6240962220495202   T   T   T
  0.4166666666666643  0.4166666666666643  0.5416666666666643   F   F   F
  0.4166666666666643  0.9166666666666643  0.5416666666666643   F   F   F
  0.9166666666666643  0.4166666666666643  0.5416666666666643   F   F   F
  0.9166666666666643  0.9166666666666643  0.5416666666666643   F   F   F
  0.0836019811486284  0.0850864810727749  0.6236395375072444   T   T   T
  0.0847665959830098  0.5834572990095888  0.6242275626391773   T   T   T
  0.5833397894730327  0.0827047520387166  0.6227507131234535   T   T   T
  0.5829102056245616  0.5856780972924045  0.6225076421562140   T   T   T
  0.2508256773056571  0.2546297302695331  0.7072276931813082   T   T   T
  0.2511480630895263  0.7534403935893614  0.7051458186119215   T   T   T
  0.7499738226230540  0.2516643398837067  0.7064444394323460   T   T   T
  0.7437750326604073  0.7540770059194689  0.7050560820592006   T   T   T
  0.1666666666666643  0.4166666666666643  0.5416666666666643   F   F   F
  0.1666666666666643  0.9166666666666643  0.5416666666666643   F   F   F
  0.6666666666666643  0.4166666666666643  0.5416666666666643   F   F   F
  0.6666666666666643  0.9166666666666643  0.5416666666666643   F   F   F
  0.3313865614141117  0.0853621287556863  0.6236160107553624   T   T   T
  0.3335521512634010  0.5849896138659760  0.6227077241883451   T   T   T
  0.8328398453740089  0.0844141132658709  0.6231526124321033   T   T   T
  0.8342878284172662  0.5840639617438086  0.6237260082014959   T   T   T
 -0.0090347596587909  0.2567440234477978  0.7052178184481697   T   T   T
 -0.0047112492967571  0.7575171089876087  0.7083851149199273   T   T   T
  0.5058942060069849  0.2480241778213224  0.7049829500437480   T   T   T
  0.4996854492838334  0.7514875448119346  0.7059620699064878   T   T   T
  0.4166666666666643  0.1666666666666643  0.5416666666666643   F   F   F
  0.4166666666666643  0.6666666666666643  0.5416666666666643   F   F   F
  0.9166666666666643  0.1666666666666643  0.5416666666666643   F   F   F
  0.9166666666666643  0.6666666666666643  0.5416666666666643   F   F   F
  0.0825508787004251  0.3368636752727877  0.6244669378642134   T   T   T
  0.0835360524214598  0.8323180398443979  0.6247119235849481   T   T   T
  0.5828228161544545  0.3342127631993499  0.6230984060803991   T   T   T
  0.5829357316541711  0.8346208039011956  0.6229158043934490   T   T   T
  0.2628015728679990  0.4980114046877455  0.7040417641018917   T   T   T
  0.2507768490525797 -0.0031676760059944  0.7093260857637882   T   T   T
  0.7469637140651272  0.5037001673784541  0.7060836328314668   T   T   T
  0.7488087933928839  0.0033335905124519  0.7061557676060380   T   T   T
  0.3555592273141747  0.0986249055868212  0.8214854905252513   T   T   T
  0.2187691095588022  0.5184387516019352  0.7894668640148256   T   T   T
  0.0351256175553276  0.5727917314537309  0.9148441132228485   T   T   T
  0.2120955118901120  0.6770009878562742  0.8623011859181082   T   T   T
  0.1933312459609939  0.1601267602143785  0.7771888622110468   T   T   T
  0.2881486462709186  0.1918223011015961  0.8817137114684560   T   T   T
  0.0357749786183263  0.7178594886834895  0.8797049549708167   T   T   T
  0.0211655867223452  0.6176508676500140  0.7827885349438478   T   T   T
 
  0.00000000E+00  0.00000000E+00  0.00000000E+00
  0.00000000E+00  0.00000000E+00  0.00000000E+00
  0.00000000E+00  0.00000000E+00  0.00000000E+00
  0.00000000E+00  0.00000000E+00  0.00000000E+00
  0.00000000E+00  0.00000000E+00  0.00000000E+00
  0.00000000E+00  0.00000000E+00  0.00000000E+00
  0.00000000E+00  0.00000000E+00  0.00000000E+00
  0.00000000E+00  0.00000000E+00  0.00000000E+00
  0.00000000E+00  0.00000000E+00  0.00000000E+00
  0.00000000E+00  0.00000000E+00  0.00000000E+00
  0.00000000E+00  0.00000000E+00  0.00000000E+00
  0.00000000E+00  0.00000000E+00  0.00000000E+00
  0.00000000E+00  0.00000000E+00  0.00000000E+00
  0.00000000E+00  0.00000000E+00  0.00000000E+00
  0.00000000E+00  0.00000000E+00  0.00000000E+00
  0.00000000E+00  0.00000000E+00  0.00000000E+00
  0.00000000E+00  0.00000000E+00  0.00000000E+00
  0.00000000E+00  0.00000000E+00  0.00000000E+00
  0.00000000E+00  0.00000000E+00  0.00000000E+00
  0.00000000E+00  0.00000000E+00  0.00000000E+00
  0.00000000E+00  0.00000000E+00  0.00000000E+00
  0.00000000E+00  0.00000000E+00  0.00000000E+00
  0.00000000E+00  0.00000000E+00  0.00000000E+00
  0.00000000E+00  0.00000000E+00  0.00000000E+00
  0.00000000E+00  0.00000000E+00  0.00000000E+00
  0.00000000E+00  0.00000000E+00  0.00000000E+00
  0.00000000E+00  0.00000000E+00  0.00000000E+00
  0.00000000E+00  0.00000000E+00  0.00000000E+00
  0.00000000E+00  0.00000000E+00  0.00000000E+00
  0.00000000E+00  0.00000000E+00  0.00000000E+00
  0.00000000E+00  0.00000000E+00  0.00000000E+00
  0.00000000E+00  0.00000000E+00  0.00000000E+00
  0.00000000E+00  0.00000000E+00  0.00000000E+00
  0.00000000E+00  0.00000000E+00  0.00000000E+00
  0.00000000E+00  0.00000000E+00  0.00000000E+00
  0.00000000E+00  0.00000000E+00  0.00000000E+00
  0.00000000E+00  0.00000000E+00  0.00000000E+00
  0.00000000E+00  0.00000000E+00  0.00000000E+00
  0.00000000E+00  0.00000000E+00  0.00000000E+00
  0.00000000E+00  0.00000000E+00  0.00000000E+00
  0.00000000E+00  0.00000000E+00  0.00000000E+00
  0.00000000E+00  0.00000000E+00  0.00000000E+00
  0.00000000E+00  0.00000000E+00  0.00000000E+00
  0.00000000E+00  0.00000000E+00  0.00000000E+00
  0.00000000E+00  0.00000000E+00  0.00000000E+00
  0.00000000E+00  0.00000000E+00  0.00000000E+00
  0.00000000E+00  0.00000000E+00  0.00000000E+00
  0.00000000E+00  0.00000000E+00  0.00000000E+00
  0.00000000E+00  0.00000000E+00  0.00000000E+00
  0.00000000E+00  0.00000000E+00  0.00000000E+00
  0.00000000E+00  0.00000000E+00  0.00000000E+00
  0.00000000E+00  0.00000000E+00  0.00000000E+00
  0.00000000E+00  0.00000000E+00  0.00000000E+00
  0.00000000E+00  0.00000000E+00  0.00000000E+00
  0.00000000E+00  0.00000000E+00  0.00000000E+00
  0.00000000E+00  0.00000000E+00  0.00000000E+00
  0.00000000E+00  0.00000000E+00  0.00000000E+00
  0.00000000E+00  0.00000000E+00  0.00000000E+00
  0.00000000E+00  0.00000000E+00  0.00000000E+00
  0.00000000E+00  0.00000000E+00  0.00000000E+00
  0.00000000E+00  0.00000000E+00  0.00000000E+00
  0.00000000E+00  0.00000000E+00  0.00000000E+00
  0.00000000E+00  0.00000000E+00  0.00000000E+00
  0.00000000E+00  0.00000000E+00  0.00000000E+00
  0.00000000E+00  0.00000000E+00  0.00000000E+00
  0.00000000E+00  0.00000000E+00  0.00000000E+00
  0.00000000E+00  0.00000000E+00  0.00000000E+00
  0.00000000E+00  0.00000000E+00  0.00000000E+00
  0.00000000E+00  0.00000000E+00  0.00000000E+00
  0.00000000E+00  0.00000000E+00  0.00000000E+00
  0.00000000E+00  0.00000000E+00  0.00000000E+00
  0.00000000E+00  0.00000000E+00  0.00000000E+00
  0.00000000E+00  0.00000000E+00  0.00000000E+00
  0.00000000E+00  0.00000000E+00  0.00000000E+00
  0.00000000E+00  0.00000000E+00  0.00000000E+00
  0.00000000E+00  0.00000000E+00  0.00000000E+00
  0.00000000E+00  0.00000000E+00  0.00000000E+00
  0.00000000E+00  0.00000000E+00  0.00000000E+00
  0.00000000E+00  0.00000000E+00  0.00000000E+00
  0.00000000E+00  0.00000000E+00  0.00000000E+00
  0.00000000E+00  0.00000000E+00  0.00000000E+00
  0.00000000E+00  0.00000000E+00  0.00000000E+00
  0.00000000E+00  0.00000000E+00  0.00000000E+00
  0.00000000E+00  0.00000000E+00  0.00000000E+00
  0.00000000E+00  0.00000000E+00  0.00000000E+00
  0.00000000E+00  0.00000000E+00  0.00000000E+00
  0.00000000E+00  0.00000000E+00  0.00000000E+00
  0.00000000E+00  0.00000000E+00  0.00000000E+00
  0.00000000E+00  0.00000000E+00  0.00000000E+00
  0.00000000E+00  0.00000000E+00  0.00000000E+00
  0.00000000E+00  0.00000000E+00  0.00000000E+00
  0.00000000E+00  0.00000000E+00  0.00000000E+00
  0.00000000E+00  0.00000000E+00  0.00000000E+00
  0.00000000E+00  0.00000000E+00  0.00000000E+00
  0.00000000E+00  0.00000000E+00  0.00000000E+00
  0.00000000E+00  0.00000000E+00  0.00000000E+00
  0.00000000E+00  0.00000000E+00  0.00000000E+00
  0.00000000E+00  0.00000000E+00  0.00000000E+00
  0.00000000E+00  0.00000000E+00  0.00000000E+00
  0.00000000E+00  0.00000000E+00  0.00000000E+00
  0.00000000E+00  0.00000000E+00  0.00000000E+00
  0.00000000E+00  0.00000000E+00  0.00000000E+00
  0.00000000E+00  0.00000000E+00  0.00000000E+00
  0.00000000E+00  0.00000000E+00  0.00000000E+00
  0.00000000E+00  0.00000000E+00  0.00000000E+00
  0.00000000E+00  0.00000000E+00  0.00000000E+00
