Na2 Fe80 Co48 S1                        
   1.00000000000000     
     9.9634609571490849    0.0000000000000000    0.0151289699723956
     3.3293508209972562    9.3783526600373399    0.0293803574974442
     0.0000000000000000    0.0000000000000000   32.5363995958672376
   Na   Fe   Co   S 
     2    80    48     1
Selective dynamics
Direct
  0.9141893523481676  0.3064835272760291  0.7976447412959610   T   T   T
  0.3420288030070413  0.5976323687274767  0.7952937524551213   T   T   T
 -0.0008064910469767 -0.0014772076407423  0.7179453236689515   T   T   T
  0.1250000000000000  0.6250000000000000  0.2812500000000000   F   F   F
  0.2500000000000000  0.2500000000000000  0.3437500000000000   F   F   F
  0.3750000000000000  0.8750000000000000  0.4062500000000000   F   F   F
  0.5000000000000000  0.5000000000000000  0.4687500000000000   F   F   F
  0.6250000000000000  0.1250000000000000  0.5312500000000000   F   F   F
  0.7500000000000000  0.7500000000000000  0.5937500000000000   F   F   F
  0.8731244793797175  0.3747425758355035  0.6563031509692703   T   T   T
  0.8750000000000000  0.1250000000000000  0.2812500000000000   F   F   F
  0.0000000000000000  0.7500000000000000  0.3437500000000000   F   F   F
  0.1250000000000000  0.3750000000000000  0.4062500000000000   F   F   F
  0.2500000000000000  0.0000000000000000  0.4687500000000000   F   F   F
  0.3750000000000000  0.6250000000000000  0.5312500000000000   F   F   F
  0.5000000000000000  0.2500000000000000  0.5937500000000000   F   F   F
  0.6243640598679393  0.8748721741600268  0.6568225793294501   T   T   T
  0.7494908138028789  0.4988400394053852  0.7217464647268277   T   T   T
  0.5000000000000000  0.2500000000000000  0.3437500000000000   F   F   F
  0.6250000000000000  0.8750000000000000  0.4062500000000000   F   F   F
  0.7500000000000000  0.5000000000000000  0.4687500000000000   F   F   F
  0.8750000000000000  0.1250000000000000  0.5312500000000000   F   F   F
  0.0000000000000000  0.7500000000000000  0.5937500000000000   F   F   F
  0.1248466796345503  0.3740366744871600  0.6558997140585439   T   T   T
  0.2487120067773465 -0.0040415744854395  0.7187493511024722   T   T   T
  0.3750000000000000  0.6250000000000000  0.2812500000000000   F   F   F
  0.1249059120615001  0.8749059120615001  0.2812029560307536   F   F   F
  0.2499059120615001  0.4999059120615001  0.3437029560307536   F   F   F
  0.3749059120615001  0.1249059120615001  0.4062029560307536   F   F   F
  0.4999059120615001  0.7499059120615001  0.4687029560307536   F   F   F
  0.6249059120615001  0.3749059120615001  0.5312029560307465   F   F   F
  0.7499059120615001  0.9999059120615001  0.5937029560307536   F   F   F
  0.8736402644983591  0.6237849747814829  0.6568036707541113   T   T   T
  0.0026372770510520  0.2473110962214421  0.7156697445753756   T   T   T
  0.2500940879384999  0.0000940879384999  0.3437970439692464   F   F   F
  0.3750940879384999  0.6250940879384999  0.4062970439692464   F   F   F
  0.5000940879384999  0.2500940879384999  0.4687970439692464   F   F   F
  0.6250940879384999  0.8750940879384999  0.5312970439692464   F   F   F
  0.7500940879384999  0.5000940879384999  0.5937970439692464   F   F   F
  0.8748089081615154  0.1229105837325038  0.6563969713915596   T   T   T
 -0.0001204059638606  0.7447682203598733  0.7193037065413637   T   T   T
  0.1250940879384999  0.3750940879384999  0.2812970439692464   F   F   F
  0.7500000000000000  0.2500000000000000  0.3437500000000000   F   F   F
  0.8750000000000000  0.8750000000000000  0.4062500000000000   F   F   F
  0.0000000000000000  0.5000000000000000  0.4687500000000000   F   F   F
  0.1250000000000000  0.1250000000000000  0.5312500000000000   F   F   F
  0.2500000000000000  0.7500000000000000  0.5937500000000000   F   F   F
  0.3762619391928197  0.3733533350056337  0.6565569977189403   T   T   T
  0.4993849959719653 -0.0010219102531692  0.7187403124269264   T   T   T
  0.6250000000000000  0.6250000000000000  0.2812500000000000   F   F   F
  0.6250000000000000  0.3750000000000000  0.4062500000000000   F   F   F
  0.7500000000000000  0.0000000000000000  0.4687500000000000   F   F   F
  0.8750000000000000  0.6250000000000000  0.5312500000000000   F   F   F
  0.0000000000000000  0.2500000000000000  0.5937500000000000   F   F   F
  0.1243401441985883  0.8740757280298859  0.6564136488163497   T   T   T
  0.2457923842562635  0.4974747821500933  0.7172702979395321   T   T   T
  0.3750000000000000  0.1250000000000000  0.2812500000000000   F   F   F
  0.5000000000000000  0.7500000000000000  0.3437500000000000   F   F   F
  0.0000000000000000  0.2500000000000000  0.3437500000000000   F   F   F
  0.1250000000000000  0.8750000000000000  0.4062500000000000   F   F   F
  0.2500000000000000  0.5000000000000000  0.4687500000000000   F   F   F
  0.3750000000000000  0.1250000000000000  0.5312500000000000   F   F   F
  0.5000000000000000  0.7500000000000000  0.5937500000000000   F   F   F
  0.6249355012651251  0.3736787114059709  0.6561206485843540   T   T   T
  0.7502335756526544 -0.0037007824233279  0.7181025403964908   T   T   T
  0.8750000000000000  0.6250000000000000  0.2812500000000000   F   F   F
  0.8749059120615001  0.1249059120615001  0.4062029560307536   F   F   F
  0.9999059120615001  0.7499059120615001  0.4687029560307536   F   F   F
  0.1249059120615001  0.3749059120615001  0.5312029560307465   F   F   F
  0.2499059120615001  0.9999059120615001  0.5937029560307465   F   F   F
  0.3734641003419616  0.6248129260457952  0.6559072151930658   T   T   T
  0.4981208693107188  0.2517694876438379  0.7221253856267774   T   T   T
  0.6249059120615001  0.8749059120615001  0.2812029560307465   F   F   F
  0.7499059120615001  0.4999059120615001  0.3437029560307536   F   F   F
  0.7500940879384999  0.0000940879384999  0.3437970439692464   F   F   F
  0.8750940879384999  0.6250940879384999  0.4062970439692464   F   F   F
  0.0000940879384999  0.2500940879384999  0.4687970439692464   F   F   F
  0.1250940879384999  0.8750940879384999  0.5312970439692464   F   F   F
  0.2500940879384999  0.5000940879384999  0.5937970439692464   F   F   F
  0.3757504000649779  0.1235926872050786  0.6571422232733861   T   T   T
  0.4975576318110152  0.7488723978009980  0.7183408609843505   T   T   T
  0.6250940879384999  0.3750940879384999  0.2812970439692464   F   F   F
  0.1250000000000000  0.1250000000000000  0.2812500000000000   F   F   F
  0.2500000000000000  0.7500000000000000  0.3437500000000000   F   F   F
  0.3750000000000000  0.3750000000000000  0.4062500000000000   F   F   F
  0.5000000000000000  0.0000000000000000  0.4687500000000000   F   F   F
  0.6250000000000000  0.6250000000000000  0.5312500000000000   F   F   F
  0.7500000000000000  0.2500000000000000  0.5937500000000000   F   F   F
  0.8754495920244154  0.8733902849687857  0.6564857440854328   T   T   T
 -0.0011208244150722  0.4951514650527685  0.7159595967339979   T   T   T
  0.6245069445781013  0.1251643518072996  0.4063321759036498   F   F   F
  0.7495069445781013  0.7501643518072996  0.4688321759036498   F   F   F
  0.8745069445781013  0.3751643518072996  0.5313321759036498   F   F   F
  0.9995069445781013  0.0001643518072996  0.5938321759036498   F   F   F
  0.1234191645680337  0.6240981108219242  0.6559990137443114   T   T   T
  0.2502050678238029  0.2485848888018780  0.7161545035624122   T   T   T
  0.3745069445781013  0.8751643518072996  0.2813321759036498   F   F   F
  0.4995069445781013  0.5001643518072996  0.3438321759036498   F   F   F
  0.0004930554218987  0.9998356481927004  0.3436678240963502   F   F   F
  0.1254930554218987  0.6248356481927004  0.4061678240963502   F   F   F
  0.2504930554218987  0.2498356481927004  0.4686678240963502   F   F   F
  0.3754930554218987  0.8748356481927004  0.5311678240963502   F   F   F
  0.5004930554218987  0.4998356481927004  0.5936678240963502   F   F   F
  0.6249183965556074  0.1252290807223748  0.6569219793615569   T   T   T
  0.7465642002737596  0.7479259718654995  0.7159282614567577   T   T   T
  0.8754930554218987  0.3748356481927004  0.2811678240963502   F   F   F
  0.6250000000000000  0.1250000000000000  0.2812500000000000   F   F   F
  0.7500000000000000  0.7500000000000000  0.3437500000000000   F   F   F
  0.8750000000000000  0.3750000000000000  0.4062500000000000   F   F   F
  0.0000000000000000  0.0000000000000000  0.4687500000000000   F   F   F
  0.1250000000000000  0.6250000000000000  0.5312500000000000   F   F   F
  0.2500000000000000  0.2500000000000000  0.5937500000000000   F   F   F
  0.3748797006860852  0.8747778882759670  0.6562218480578218   T   T   T
  0.4959289093001564  0.5023356657224725  0.7163384776203348   T   T   T
  0.8745069445781013  0.8751643518072996  0.2813321759036498   F   F   F
  0.9995069445781013  0.5001643518072996  0.3438321759036498   F   F   F
  0.1245069445781013  0.1251643518072996  0.4063321759036498   F   F   F
  0.2495069445781013  0.7501643518072996  0.4688321759036498   F   F   F
  0.3745069445781013  0.3751643518072996  0.5313321759036498   F   F   F
  0.4995069445781013  0.0001643518072996  0.5938321759036498   F   F   F
  0.6240132466560689  0.6232645442297382  0.6567201488698424   T   T   T
  0.7515295350112877  0.2455230896204211  0.7177394923836259   T   T   T
  0.5004930554218987  0.9998356481927004  0.3436678240963502   F   F   F
  0.6254930554218987  0.6248356481927004  0.4061678240963502   F   F   F
  0.7504930554218987  0.2498356481927004  0.4686678240963502   F   F   F
  0.8754930554218987  0.8748356481927004  0.5311678240963502   F   F   F
  0.0004930554218987  0.4998356481927004  0.5936678240963502   F   F   F
  0.1257888901203245  0.1221251013950914  0.6557346637197480   T   T   T
  0.2470421821830957  0.7479300719180971  0.7153849579625537   T   T   T
  0.3754930554218987  0.3748356481927004  0.2811678240963502   F   F   F
  0.6232761138445801  0.3804316942741105  0.7700048452721449   T   T   T
 
  0.00000000E+00  0.00000000E+00  0.00000000E+00
  0.00000000E+00  0.00000000E+00  0.00000000E+00
  0.00000000E+00  0.00000000E+00  0.00000000E+00
  0.00000000E+00  0.00000000E+00  0.00000000E+00
  0.00000000E+00  0.00000000E+00  0.00000000E+00
  0.00000000E+00  0.00000000E+00  0.00000000E+00
  0.00000000E+00  0.00000000E+00  0.00000000E+00
  0.00000000E+00  0.00000000E+00  0.00000000E+00
  0.00000000E+00  0.00000000E+00  0.00000000E+00
  0.00000000E+00  0.00000000E+00  0.00000000E+00
  0.00000000E+00  0.00000000E+00  0.00000000E+00
  0.00000000E+00  0.00000000E+00  0.00000000E+00
  0.00000000E+00  0.00000000E+00  0.00000000E+00
  0.00000000E+00  0.00000000E+00  0.00000000E+00
  0.00000000E+00  0.00000000E+00  0.00000000E+00
  0.00000000E+00  0.00000000E+00  0.00000000E+00
  0.00000000E+00  0.00000000E+00  0.00000000E+00
  0.00000000E+00  0.00000000E+00  0.00000000E+00
  0.00000000E+00  0.00000000E+00  0.00000000E+00
  0.00000000E+00  0.00000000E+00  0.00000000E+00
  0.00000000E+00  0.00000000E+00  0.00000000E+00
  0.00000000E+00  0.00000000E+00  0.00000000E+00
  0.00000000E+00  0.00000000E+00  0.00000000E+00
  0.00000000E+00  0.00000000E+00  0.00000000E+00
  0.00000000E+00  0.00000000E+00  0.00000000E+00
  0.00000000E+00  0.00000000E+00  0.00000000E+00
  0.00000000E+00  0.00000000E+00  0.00000000E+00
  0.00000000E+00  0.00000000E+00  0.00000000E+00
  0.00000000E+00  0.00000000E+00  0.00000000E+00
  0.00000000E+00  0.00000000E+00  0.00000000E+00
  0.00000000E+00  0.00000000E+00  0.00000000E+00
  0.00000000E+00  0.00000000E+00  0.00000000E+00
  0.00000000E+00  0.00000000E+00  0.00000000E+00
  0.00000000E+00  0.00000000E+00  0.00000000E+00
  0.00000000E+00  0.00000000E+00  0.00000000E+00
  0.00000000E+00  0.00000000E+00  0.00000000E+00
  0.00000000E+00  0.00000000E+00  0.00000000E+00
  0.00000000E+00  0.00000000E+00  0.00000000E+00
  0.00000000E+00  0.00000000E+00  0.00000000E+00
  0.00000000E+00  0.00000000E+00  0.00000000E+00
  0.00000000E+00  0.00000000E+00  0.00000000E+00
  0.00000000E+00  0.00000000E+00  0.00000000E+00
  0.00000000E+00  0.00000000E+00  0.00000000E+00
  0.00000000E+00  0.00000000E+00  0.00000000E+00
  0.00000000E+00  0.00000000E+00  0.00000000E+00
  0.00000000E+00  0.00000000E+00  0.00000000E+00
  0.00000000E+00  0.00000000E+00  0.00000000E+00
  0.00000000E+00  0.00000000E+00  0.00000000E+00
  0.00000000E+00  0.00000000E+00  0.00000000E+00
  0.00000000E+00  0.00000000E+00  0.00000000E+00
  0.00000000E+00  0.00000000E+00  0.00000000E+00
  0.00000000E+00  0.00000000E+00  0.00000000E+00
  0.00000000E+00  0.00000000E+00  0.00000000E+00
  0.00000000E+00  0.00000000E+00  0.00000000E+00
  0.00000000E+00  0.00000000E+00  0.00000000E+00
  0.00000000E+00  0.00000000E+00  0.00000000E+00
  0.00000000E+00  0.00000000E+00  0.00000000E+00
  0.00000000E+00  0.00000000E+00  0.00000000E+00
  0.00000000E+00  0.00000000E+00  0.00000000E+00
  0.00000000E+00  0.00000000E+00  0.00000000E+00
  0.00000000E+00  0.00000000E+00  0.00000000E+00
  0.00000000E+00  0.00000000E+00  0.00000000E+00
  0.00000000E+00  0.00000000E+00  0.00000000E+00
  0.00000000E+00  0.00000000E+00  0.00000000E+00
  0.00000000E+00  0.00000000E+00  0.00000000E+00
  0.00000000E+00  0.00000000E+00  0.00000000E+00
  0.00000000E+00  0.00000000E+00  0.00000000E+00
  0.00000000E+00  0.00000000E+00  0.00000000E+00
  0.00000000E+00  0.00000000E+00  0.00000000E+00
  0.00000000E+00  0.00000000E+00  0.00000000E+00
  0.00000000E+00  0.00000000E+00  0.00000000E+00
  0.00000000E+00  0.00000000E+00  0.00000000E+00
  0.00000000E+00  0.00000000E+00  0.00000000E+00
  0.00000000E+00  0.00000000E+00  0.00000000E+00
  0.00000000E+00  0.00000000E+00  0.00000000E+00
  0.00000000E+00  0.00000000E+00  0.00000000E+00
  0.00000000E+00  0.00000000E+00  0.00000000E+00
  0.00000000E+00  0.00000000E+00  0.00000000E+00
  0.00000000E+00  0.00000000E+00  0.00000000E+00
  0.00000000E+00  0.00000000E+00  0.00000000E+00
  0.00000000E+00  0.00000000E+00  0.00000000E+00
  0.00000000E+00  0.00000000E+00  0.00000000E+00
  0.00000000E+00  0.00000000E+00  0.00000000E+00
  0.00000000E+00  0.00000000E+00  0.00000000E+00
  0.00000000E+00  0.00000000E+00  0.00000000E+00
  0.00000000E+00  0.00000000E+00  0.00000000E+00
  0.00000000E+00  0.00000000E+00  0.00000000E+00
  0.00000000E+00  0.00000000E+00  0.00000000E+00
  0.00000000E+00  0.00000000E+00  0.00000000E+00
  0.00000000E+00  0.00000000E+00  0.00000000E+00
  0.00000000E+00  0.00000000E+00  0.00000000E+00
  0.00000000E+00  0.00000000E+00  0.00000000E+00
  0.00000000E+00  0.00000000E+00  0.00000000E+00
  0.00000000E+00  0.00000000E+00  0.00000000E+00
  0.00000000E+00  0.00000000E+00  0.00000000E+00
  0.00000000E+00  0.00000000E+00  0.00000000E+00
  0.00000000E+00  0.00000000E+00  0.00000000E+00
  0.00000000E+00  0.00000000E+00  0.00000000E+00
  0.00000000E+00  0.00000000E+00  0.00000000E+00
  0.00000000E+00  0.00000000E+00  0.00000000E+00
  0.00000000E+00  0.00000000E+00  0.00000000E+00
  0.00000000E+00  0.00000000E+00  0.00000000E+00
  0.00000000E+00  0.00000000E+00  0.00000000E+00
  0.00000000E+00  0.00000000E+00  0.00000000E+00
  0.00000000E+00  0.00000000E+00  0.00000000E+00
  0.00000000E+00  0.00000000E+00  0.00000000E+00
  0.00000000E+00  0.00000000E+00  0.00000000E+00
  0.00000000E+00  0.00000000E+00  0.00000000E+00
  0.00000000E+00  0.00000000E+00  0.00000000E+00
  0.00000000E+00  0.00000000E+00  0.00000000E+00
  0.00000000E+00  0.00000000E+00  0.00000000E+00
  0.00000000E+00  0.00000000E+00  0.00000000E+00
  0.00000000E+00  0.00000000E+00  0.00000000E+00
  0.00000000E+00  0.00000000E+00  0.00000000E+00
  0.00000000E+00  0.00000000E+00  0.00000000E+00
  0.00000000E+00  0.00000000E+00  0.00000000E+00
  0.00000000E+00  0.00000000E+00  0.00000000E+00
  0.00000000E+00  0.00000000E+00  0.00000000E+00
  0.00000000E+00  0.00000000E+00  0.00000000E+00
  0.00000000E+00  0.00000000E+00  0.00000000E+00
  0.00000000E+00  0.00000000E+00  0.00000000E+00
  0.00000000E+00  0.00000000E+00  0.00000000E+00
  0.00000000E+00  0.00000000E+00  0.00000000E+00
  0.00000000E+00  0.00000000E+00  0.00000000E+00
  0.00000000E+00  0.00000000E+00  0.00000000E+00
  0.00000000E+00  0.00000000E+00  0.00000000E+00
  0.00000000E+00  0.00000000E+00  0.00000000E+00
  0.00000000E+00  0.00000000E+00  0.00000000E+00
  0.00000000E+00  0.00000000E+00  0.00000000E+00
  0.00000000E+00  0.00000000E+00  0.00000000E+00
  0.00000000E+00  0.00000000E+00  0.00000000E+00
