Na2 Ni96 S4                             
   1.00000000000000     
    10.0131886739142253    0.0000000000000000    0.0000000000000006
     5.0065943369571100    8.6716757644963351    0.0000000000000006
     0.0000000000000000    0.0000000000000000   24.5272029493055861
   Na   Ni   S 
     2    96     4
Selective dynamics
Direct
  0.6823776861950578  0.2409254019745223  0.8601918444653556   T   T   T
  0.3462045602566703  0.5811207464326505  0.8691446572650171   T   T   T
  0.0000000000000000  0.0000000000000000  0.4583333333333357   F   F   F
  0.0000000000000000  0.5000000000000000  0.4583333333333357   F   F   F
  0.5000000000000000  0.0000000000000000  0.4583333333333357   F   F   F
  0.5000000000000000  0.5000000000000000  0.4583333333333357   F   F   F
  0.1666666666666643  0.1666666666666643  0.2916666666666643   F   F   F
  0.1666666666666643  0.6666666666666643  0.2916666666666643   F   F   F
  0.6666666666666643  0.1666666666666643  0.2916666666666643   F   F   F
  0.6666666666666643  0.6666666666666643  0.2916666666666643   F   F   F
  0.3333333333333357  0.3333333333333357  0.3750000000000000   F   F   F
  0.3333333333333357  0.8333333333333357  0.3750000000000000   F   F   F
  0.8333333333333357  0.3333333333333357  0.3750000000000000   F   F   F
  0.8333333333333357  0.8333333333333357  0.3750000000000000   F   F   F
  0.4166666666666643  0.4166666666666643  0.2916666666666643   F   F   F
  0.4166666666666643  0.9166666666666643  0.2916666666666643   F   F   F
  0.9166666666666643  0.4166666666666643  0.2916666666666643   F   F   F
  0.9166666666666643  0.9166666666666643  0.2916666666666643   F   F   F
  0.0833333333333357  0.0833333333333357  0.3750000000000000   F   F   F
  0.0833333333333357  0.5833333333333357  0.3750000000000000   F   F   F
  0.5833333333333357  0.0833333333333357  0.3750000000000000   F   F   F
  0.5833333333333357  0.5833333333333357  0.3750000000000000   F   F   F
  0.2500000000000000  0.2500000000000000  0.4583333333333357   F   F   F
  0.2500000000000000  0.7500000000000000  0.4583333333333357   F   F   F
  0.7500000000000000  0.2500000000000000  0.4583333333333357   F   F   F
  0.7500000000000000  0.7500000000000000  0.4583333333333357   F   F   F
  0.1666666666666643  0.4166666666666643  0.2916666666666643   F   F   F
  0.1666666666666643  0.9166666666666643  0.2916666666666643   F   F   F
  0.6666666666666643  0.4166666666666643  0.2916666666666643   F   F   F
  0.6666666666666643  0.9166666666666643  0.2916666666666643   F   F   F
  0.3333333333333357  0.0833333333333357  0.3750000000000000   F   F   F
  0.3333333333333357  0.5833333333333357  0.3750000000000000   F   F   F
  0.8333333333333357  0.0833333333333357  0.3750000000000000   F   F   F
  0.8333333333333357  0.5833333333333357  0.3750000000000000   F   F   F
  0.0000000000000000  0.2500000000000000  0.4583333333333357   F   F   F
  0.0000000000000000  0.7500000000000000  0.4583333333333357   F   F   F
  0.5000000000000000  0.2500000000000000  0.4583333333333357   F   F   F
  0.5000000000000000  0.7500000000000000  0.4583333333333357   F   F   F
  0.4166666666666643  0.1666666666666643  0.2916666666666643   F   F   F
  0.4166666666666643  0.6666666666666643  0.2916666666666643   F   F   F
  0.9166666666666643  0.1666666666666643  0.2916666666666643   F   F   F
  0.9166666666666643  0.6666666666666643  0.2916666666666643   F   F   F
  0.0833333333333357  0.3333333333333357  0.3750000000000000   F   F   F
  0.0833333333333357  0.8333333333333357  0.3750000000000000   F   F   F
  0.5833333333333357  0.3333333333333357  0.3750000000000000   F   F   F
  0.5833333333333357  0.8333333333333357  0.3750000000000000   F   F   F
  0.2500000000000000  0.0000000000000000  0.4583333333333357   F   F   F
  0.2500000000000000  0.5000000000000000  0.4583333333333357   F   F   F
  0.7500000000000000  0.0000000000000000  0.4583333333333357   F   F   F
  0.7500000000000000  0.5000000000000000  0.4583333333333357   F   F   F
  0.0014546660413823  0.0041773296495046  0.7094953329568796   T   T   T
 -0.0071388773669772  0.5094649722725566  0.7068673882962078   T   T   T
  0.5019517426212458 -0.0059166276792947  0.7070955658172372   T   T   T
  0.4930606955345535  0.5050080097635554  0.7242592328903554   T   T   T
  0.1666666666666643  0.1666666666666643  0.5416666666666643   F   F   F
  0.1666666666666643  0.6666666666666643  0.5416666666666643   F   F   F
  0.6666666666666643  0.1666666666666643  0.5416666666666643   F   F   F
  0.6666666666666643  0.6666666666666643  0.5416666666666643   F   F   F
  0.3338227202992879  0.3335354799332449  0.6250226004444110   T   T   T
  0.3323486153555345  0.8340863050491645  0.6251249454272350   T   T   T
  0.8332010048224223  0.3361055257133457  0.6250265553350295   T   T   T
  0.8343835320420973  0.8344734989338101  0.6239437858620854   T   T   T
  0.4166666666666643  0.4166666666666643  0.5416666666666643   F   F   F
  0.4166666666666643  0.9166666666666643  0.5416666666666643   F   F   F
  0.9166666666666643  0.4166666666666643  0.5416666666666643   F   F   F
  0.9166666666666643  0.9166666666666643  0.5416666666666643   F   F   F
  0.0824755861031735  0.0862991576731620  0.6245494840187080   T   T   T
  0.0873488682001276  0.5851113644695534  0.6257105805602070   T   T   T
  0.5840000261696363  0.0806297101016703  0.6247297720861789   T   T   T
  0.5801064011431730  0.5814509619133802  0.6256058892547899   T   T   T
  0.2540470387130088  0.2536079548717595  0.7146869941345119   T   T   T
  0.2444313698232014  0.7586748211391892  0.7095451033567769   T   T   T
  0.7573084969395886  0.2477939293841510  0.7140203091155087   T   T   T
  0.7521083563738615  0.7515984177339685  0.7069778268079813   T   T   T
  0.1666666666666643  0.4166666666666643  0.5416666666666643   F   F   F
  0.1666666666666643  0.9166666666666643  0.5416666666666643   F   F   F
  0.6666666666666643  0.4166666666666643  0.5416666666666643   F   F   F
  0.6666666666666643  0.9166666666666643  0.5416666666666643   F   F   F
  0.3308298755311626  0.0883152302276334  0.6261576948166473   T   T   T
  0.3360860977764774  0.5811483379299095  0.6292122680892803   T   T   T
  0.8319467030901733  0.0890677054019325  0.6268940315871039   T   T   T
  0.8337205494823067  0.5839670022446639  0.6248689377439525   T   T   T
  0.0058449897901478  0.2524991533254227  0.7080974365154387   T   T   T
  0.0000414142172980  0.7555197833976846  0.7081929417583501   T   T   T
  0.5119514408619791  0.2360549102663980  0.7069360395172983   T   T   T
  0.4938419081283087  0.7526096947986008  0.7097901413375906   T   T   T
  0.4166666666666643  0.1666666666666643  0.5416666666666643   F   F   F
  0.4166666666666643  0.6666666666666643  0.5416666666666643   F   F   F
  0.9166666666666643  0.1666666666666643  0.5416666666666643   F   F   F
  0.9166666666666643  0.6666666666666643  0.5416666666666643   F   F   F
  0.0835124027644662  0.3369146981170888  0.6266307783299446   T   T   T
  0.0838612537213888  0.8365264585780602  0.6247560424395117   T   T   T
  0.5841700968078212  0.3336773958353539  0.6277449932029984   T   T   T
  0.5828424079123516  0.8291161727942201  0.6250471202781370   T   T   T
  0.2479522229573093  0.0035273930218723  0.7090742678425395   T   T   T
  0.2416555688828916  0.5112097100086630  0.7122558497832036   T   T   T
  0.7545314118351453  0.0000574749052463  0.7074280264517265   T   T   T
  0.7501980516485089  0.5063314067046011  0.7089384840193117   T   T   T
  0.3904747318199002  0.2914324051560803  0.8609312521824268   T   T   T
  0.6899570573594459  0.4348616577985993  0.7812113632639350   T   T   T
  0.6336759334444648  0.5476371489932136  0.8585623490493209   T   T   T
  0.3677207132509022  0.3435361548121944  0.7750647966451808   T   T   T
 
  0.00000000E+00  0.00000000E+00  0.00000000E+00
  0.00000000E+00  0.00000000E+00  0.00000000E+00
  0.00000000E+00  0.00000000E+00  0.00000000E+00
  0.00000000E+00  0.00000000E+00  0.00000000E+00
  0.00000000E+00  0.00000000E+00  0.00000000E+00
  0.00000000E+00  0.00000000E+00  0.00000000E+00
  0.00000000E+00  0.00000000E+00  0.00000000E+00
  0.00000000E+00  0.00000000E+00  0.00000000E+00
  0.00000000E+00  0.00000000E+00  0.00000000E+00
  0.00000000E+00  0.00000000E+00  0.00000000E+00
  0.00000000E+00  0.00000000E+00  0.00000000E+00
  0.00000000E+00  0.00000000E+00  0.00000000E+00
  0.00000000E+00  0.00000000E+00  0.00000000E+00
  0.00000000E+00  0.00000000E+00  0.00000000E+00
  0.00000000E+00  0.00000000E+00  0.00000000E+00
  0.00000000E+00  0.00000000E+00  0.00000000E+00
  0.00000000E+00  0.00000000E+00  0.00000000E+00
  0.00000000E+00  0.00000000E+00  0.00000000E+00
  0.00000000E+00  0.00000000E+00  0.00000000E+00
  0.00000000E+00  0.00000000E+00  0.00000000E+00
  0.00000000E+00  0.00000000E+00  0.00000000E+00
  0.00000000E+00  0.00000000E+00  0.00000000E+00
  0.00000000E+00  0.00000000E+00  0.00000000E+00
  0.00000000E+00  0.00000000E+00  0.00000000E+00
  0.00000000E+00  0.00000000E+00  0.00000000E+00
  0.00000000E+00  0.00000000E+00  0.00000000E+00
  0.00000000E+00  0.00000000E+00  0.00000000E+00
  0.00000000E+00  0.00000000E+00  0.00000000E+00
  0.00000000E+00  0.00000000E+00  0.00000000E+00
  0.00000000E+00  0.00000000E+00  0.00000000E+00
  0.00000000E+00  0.00000000E+00  0.00000000E+00
  0.00000000E+00  0.00000000E+00  0.00000000E+00
  0.00000000E+00  0.00000000E+00  0.00000000E+00
  0.00000000E+00  0.00000000E+00  0.00000000E+00
  0.00000000E+00  0.00000000E+00  0.00000000E+00
  0.00000000E+00  0.00000000E+00  0.00000000E+00
  0.00000000E+00  0.00000000E+00  0.00000000E+00
  0.00000000E+00  0.00000000E+00  0.00000000E+00
  0.00000000E+00  0.00000000E+00  0.00000000E+00
  0.00000000E+00  0.00000000E+00  0.00000000E+00
  0.00000000E+00  0.00000000E+00  0.00000000E+00
  0.00000000E+00  0.00000000E+00  0.00000000E+00
  0.00000000E+00  0.00000000E+00  0.00000000E+00
  0.00000000E+00  0.00000000E+00  0.00000000E+00
  0.00000000E+00  0.00000000E+00  0.00000000E+00
  0.00000000E+00  0.00000000E+00  0.00000000E+00
  0.00000000E+00  0.00000000E+00  0.00000000E+00
  0.00000000E+00  0.00000000E+00  0.00000000E+00
  0.00000000E+00  0.00000000E+00  0.00000000E+00
  0.00000000E+00  0.00000000E+00  0.00000000E+00
  0.00000000E+00  0.00000000E+00  0.00000000E+00
  0.00000000E+00  0.00000000E+00  0.00000000E+00
  0.00000000E+00  0.00000000E+00  0.00000000E+00
  0.00000000E+00  0.00000000E+00  0.00000000E+00
  0.00000000E+00  0.00000000E+00  0.00000000E+00
  0.00000000E+00  0.00000000E+00  0.00000000E+00
  0.00000000E+00  0.00000000E+00  0.00000000E+00
  0.00000000E+00  0.00000000E+00  0.00000000E+00
  0.00000000E+00  0.00000000E+00  0.00000000E+00
  0.00000000E+00  0.00000000E+00  0.00000000E+00
  0.00000000E+00  0.00000000E+00  0.00000000E+00
  0.00000000E+00  0.00000000E+00  0.00000000E+00
  0.00000000E+00  0.00000000E+00  0.00000000E+00
  0.00000000E+00  0.00000000E+00  0.00000000E+00
  0.00000000E+00  0.00000000E+00  0.00000000E+00
  0.00000000E+00  0.00000000E+00  0.00000000E+00
  0.00000000E+00  0.00000000E+00  0.00000000E+00
  0.00000000E+00  0.00000000E+00  0.00000000E+00
  0.00000000E+00  0.00000000E+00  0.00000000E+00
  0.00000000E+00  0.00000000E+00  0.00000000E+00
  0.00000000E+00  0.00000000E+00  0.00000000E+00
  0.00000000E+00  0.00000000E+00  0.00000000E+00
  0.00000000E+00  0.00000000E+00  0.00000000E+00
  0.00000000E+00  0.00000000E+00  0.00000000E+00
  0.00000000E+00  0.00000000E+00  0.00000000E+00
  0.00000000E+00  0.00000000E+00  0.00000000E+00
  0.00000000E+00  0.00000000E+00  0.00000000E+00
  0.00000000E+00  0.00000000E+00  0.00000000E+00
  0.00000000E+00  0.00000000E+00  0.00000000E+00
  0.00000000E+00  0.00000000E+00  0.00000000E+00
  0.00000000E+00  0.00000000E+00  0.00000000E+00
  0.00000000E+00  0.00000000E+00  0.00000000E+00
  0.00000000E+00  0.00000000E+00  0.00000000E+00
  0.00000000E+00  0.00000000E+00  0.00000000E+00
  0.00000000E+00  0.00000000E+00  0.00000000E+00
  0.00000000E+00  0.00000000E+00  0.00000000E+00
  0.00000000E+00  0.00000000E+00  0.00000000E+00
  0.00000000E+00  0.00000000E+00  0.00000000E+00
  0.00000000E+00  0.00000000E+00  0.00000000E+00
  0.00000000E+00  0.00000000E+00  0.00000000E+00
  0.00000000E+00  0.00000000E+00  0.00000000E+00
  0.00000000E+00  0.00000000E+00  0.00000000E+00
  0.00000000E+00  0.00000000E+00  0.00000000E+00
  0.00000000E+00  0.00000000E+00  0.00000000E+00
  0.00000000E+00  0.00000000E+00  0.00000000E+00
  0.00000000E+00  0.00000000E+00  0.00000000E+00
  0.00000000E+00  0.00000000E+00  0.00000000E+00
  0.00000000E+00  0.00000000E+00  0.00000000E+00
  0.00000000E+00  0.00000000E+00  0.00000000E+00
  0.00000000E+00  0.00000000E+00  0.00000000E+00
  0.00000000E+00  0.00000000E+00  0.00000000E+00
  0.00000000E+00  0.00000000E+00  0.00000000E+00
