Na2 Ti64 Cu64 S2                        
   1.00000000000000     
    12.5468749601132661    0.0000000000000000   -0.0023845427473836
     6.2718613598715018    8.6718031553237864    0.3861000546476283
     0.0000000000000000    0.0000000000000000   34.7217897683016261
   Na   Ti   Cu   S 
     2    64    64     2
Selective dynamics
Direct
  0.1474211360473393  0.2908032641774348  0.7902217536778180   T   T   T
  0.4856308003648092  0.3887309967664904  0.7909355248926552   T   T   T
  0.3164425933806569  0.2395664277010923  0.3457212966903285   F   F   F
  0.8164425933806569  0.2395664277010923  0.3457212966903285   F   F   F
  0.4414425933806569  0.4895664277010923  0.4082212966903285   F   F   F
  0.9414425933806569  0.4895664277010923  0.4082212966903285   F   F   F
  0.0664425933806569  0.7395664277010923  0.4707212966903285   F   F   F
  0.5664425933806569  0.7395664277010923  0.4707212966903285   F   F   F
  0.1914425933806569  0.9895664277010923  0.2832212966903285   F   F   F
  0.6914425933806569  0.9895664277010923  0.2832212966903285   F   F   F
  0.0572832138505461  0.0078851867613068  0.4661416069252695   F   F   F
  0.5572832138505461  0.0078851867613068  0.4661416069252695   F   F   F
  0.1822832138505461  0.2578851867613068  0.2786416069252695   F   F   F
  0.6822832138505461  0.2578851867613068  0.2786416069252695   F   F   F
  0.3072832138505461  0.5078851867613068  0.3411416069252695   F   F   F
  0.8072832138505461  0.5078851867613068  0.3411416069252695   F   F   F
  0.4322832138505461  0.7578851867613068  0.4036416069252695   F   F   F
  0.9322832138505461  0.7578851867613068  0.4036416069252695   F   F   F
  0.4427167861494539  0.9921148132386861  0.2838583930747305   F   F   F
  0.9427167861494539  0.9921148132386861  0.2838583930747305   F   F   F
  0.0677167861494539  0.2421148132386861  0.3463583930747305   F   F   F
  0.5677167861494539  0.2421148132386861  0.3463583930747305   F   F   F
  0.1927167861494539  0.4921148132386861  0.4088583930747305   F   F   F
  0.6927167861494539  0.4921148132386861  0.4088583930747305   F   F   F
  0.3177167861494539  0.7421148132386861  0.4713583930747305   F   F   F
  0.8177167861494539  0.7421148132386861  0.4713583930747305   F   F   F
  0.1835574066193431  0.7604335722989077  0.4042787033096715   F   F   F
  0.6835574066193431  0.7604335722989077  0.4042787033096715   F   F   F
  0.3085574066193431  0.0104335722989077  0.4667787033096715   F   F   F
  0.8085574066193431  0.0104335722989077  0.4667787033096715   F   F   F
  0.4335574066193431  0.2604335722989077  0.2792787033096715   F   F   F
  0.9335574066193431  0.2604335722989077  0.2792787033096715   F   F   F
  0.0585574066193431  0.5104335722989077  0.3417787033096715   F   F   F
  0.5585574066193431  0.5104335722989077  0.3417787033096715   F   F   F
  0.3164425933806569  0.2395664277010923  0.5957212966903285   F   F   F
  0.8164425933806569  0.2395664277010923  0.5957212966903285   F   F   F
  0.4372014347709545  0.4982748040006872  0.6582967236544733   T   T   T
  0.9413182171224158  0.4932600491137708  0.6592062995384527   T   T   T
  0.0605012029873462  0.7422505643214277  0.7191207365506131   T   T   T
  0.5732439421835258  0.7353230182970228  0.7226159594745414   T   T   T
  0.1914425933806569  0.9895664277010923  0.5332212966903285   F   F   F
  0.6914425933806569  0.9895664277010923  0.5332212966903285   F   F   F
  0.0401072917137485  0.0161616721084501  0.7146777689371560   T   T   T
  0.5588612032873096  0.0093507638674627  0.7152736913889882   T   T   T
  0.1822832138505461  0.2578851867613068  0.5286416069252695   F   F   F
  0.6822832138505461  0.2578851867613068  0.5286416069252695   F   F   F
  0.3072832138505461  0.5078851867613068  0.5911416069252695   F   F   F
  0.8072832138505461  0.5078851867613068  0.5911416069252695   F   F   F
  0.4303114492278348  0.7639258025604033  0.6549902446244660   T   T   T
  0.9288144280674355  0.7642949222105802  0.6524501125257015   T   T   T
  0.4427167861494539  0.9921148132386861  0.5338583930747305   F   F   F
  0.9427167861494539  0.9921148132386861  0.5338583930747305   F   F   F
  0.0677167861494539  0.2421148132386861  0.5963583930747305   F   F   F
  0.5677167861494539  0.2421148132386861  0.5963583930747305   F   F   F
  0.1883685687382483  0.5003270728958336  0.6588964202182179   T   T   T
  0.6883094548081052  0.4974629576552528  0.6593385458003200   T   T   T
  0.3171265739302179  0.7481361491806117  0.7242793608074467   T   T   T
  0.8199405946433219  0.7419259402340752  0.7192706098799835   T   T   T
  0.1798030093560327  0.7687961987208923  0.6548642746139728   T   T   T
  0.6817713172520823  0.7640216184773013  0.6539587586485033   T   T   T
  0.3185263483201520  0.0205636255730375  0.7152401558385496   T   T   T
  0.8032429958164670  0.0134412481056618  0.7153147420942164   T   T   T
  0.4335574066193431  0.2604335722989077  0.5292787033096715   F   F   F
  0.9335574066193431  0.2604335722989077  0.5292787033096715   F   F   F
  0.0585574066193431  0.5104335722989077  0.5917787033096715   F   F   F
  0.5585574066193431  0.5104335722989077  0.5917787033096715   F   F   F
  0.4397259614144460  0.2396631623782639  0.4073629807072265   F   F   F
  0.9397259614144460  0.2396631623782639  0.4073629807072265   F   F   F
  0.0647259614144460  0.4896631623782639  0.4698629807072265   F   F   F
  0.5647259614144460  0.4896631623782639  0.4698629807072265   F   F   F
  0.1897259614144460  0.7396631623782639  0.2823629807072265   F   F   F
  0.6897259614144460  0.7396631623782639  0.2823629807072265   F   F   F
  0.3147259614144460  0.9896631623782639  0.3448629807072265   F   F   F
  0.8147259614144460  0.9896631623782639  0.3448629807072265   F   F   F
  0.4323315811891320  0.0044519228288920  0.4036657905945660   F   F   F
  0.9323315811891320  0.0044519228288920  0.4036657905945660   F   F   F
  0.0573315811891320  0.2544519228288920  0.4661657905945660   F   F   F
  0.5573315811891320  0.2544519228288920  0.4661657905945660   F   F   F
  0.1823315811891320  0.5044519228288920  0.2786657905945660   F   F   F
  0.6823315811891320  0.5044519228288920  0.2786657905945660   F   F   F
  0.3073315811891320  0.7544519228288920  0.3411657905945660   F   F   F
  0.8073315811891320  0.7544519228288920  0.3411657905945660   F   F   F
  0.0676684188108680  0.9955480771711080  0.3463342094054340   F   F   F
  0.5676684188108680  0.9955480771711080  0.3463342094054340   F   F   F
  0.1926684188108680  0.2455480771711080  0.4088342094054340   F   F   F
  0.6926684188108680  0.2455480771711080  0.4088342094054340   F   F   F
  0.3176684188108680  0.4955480771711080  0.4713342094054340   F   F   F
  0.8176684188108680  0.4955480771711080  0.4713342094054340   F   F   F
  0.4426684188108680  0.7455480771711080  0.2838342094054340   F   F   F
  0.9426684188108680  0.7455480771711080  0.2838342094054340   F   F   F
  0.0602740385855540  0.7603368376217361  0.3426370192927735   F   F   F
  0.5602740385855540  0.7603368376217361  0.3426370192927735   F   F   F
  0.1852740385855540  0.0103368376217361  0.4051370192927735   F   F   F
  0.6852740385855540  0.0103368376217361  0.4051370192927735   F   F   F
  0.3102740385855540  0.2603368376217361  0.4676370192927735   F   F   F
  0.8102740385855540  0.2603368376217361  0.4676370192927735   F   F   F
  0.4352740385855540  0.5103368376217361  0.2801370192927735   F   F   F
  0.9352740385855540  0.5103368376217361  0.2801370192927735   F   F   F
  0.4359280721728006  0.2458502198219901  0.6578400357695419   T   T   T
  0.9356725325861477  0.2440179805044245  0.6578599950180146   T   T   T
  0.0695402769876848  0.4848669468182065  0.7196037782932470   T   T   T
  0.5611607189706973  0.4894461796949966  0.7211877363285401   T   T   T
  0.1897259614144460  0.7396631623782639  0.5323629807072265   F   F   F
  0.6897259614144460  0.7396631623782639  0.5323629807072265   F   F   F
  0.3147259614144460  0.9896631623782639  0.5948629807072265   F   F   F
  0.8147259614144460  0.9896631623782639  0.5948629807072265   F   F   F
  0.4358440234122819  0.0069299812605983  0.6527982144189693   T   T   T
  0.9268660450913022  0.0098382998183520  0.6530903135919665   T   T   T
  0.0584751497530849  0.2541392300098678  0.7146385579555260   T   T   T
  0.5514718048993803  0.2615620451085744  0.7155371062799188   T   T   T
  0.1823315811891320  0.5044519228288920  0.5286657905945660   F   F   F
  0.6823315811891320  0.5044519228288920  0.5286657905945660   F   F   F
  0.3073315811891320  0.7544519228288920  0.5911657905945660   F   F   F
  0.8073315811891320  0.7544519228288920  0.5911657905945660   F   F   F
  0.0676684188108680  0.9955480771711080  0.5963342094054340   F   F   F
  0.5676684188108680  0.9955480771711080  0.5963342094054340   F   F   F
  0.1963044025037537  0.2477324034718403  0.6597448041421602   T   T   T
  0.6877122806064315  0.2490024051548430  0.6585297387429242   T   T   T
  0.3136210794710567  0.5016033604656391  0.7194508745796114   T   T   T
  0.8267887956279369  0.4853654639822831  0.7196409311495396   T   T   T
  0.4426684188108680  0.7455480771711080  0.5338342094054340   F   F   F
  0.9426684188108680  0.7455480771711080  0.5338342094054340   F   F   F
  0.0602740385855540  0.7603368376217361  0.5926370192927735   F   F   F
  0.5602740385855540  0.7603368376217361  0.5926370192927735   F   F   F
  0.1832049216705486  0.0163537220332612  0.6571506726432369   T   T   T
  0.6816952708248634  0.0131360248109737  0.6550164638866911   T   T   T
  0.3174863711574946  0.2675421643956203  0.7213151644424600   T   T   T
  0.7998718015948393  0.2661842943856210  0.7168643384167651   T   T   T
  0.4352740385855540  0.5103368376217361  0.5301370192927735   F   F   F
  0.9352740385855540  0.5103368376217361  0.5301370192927735   F   F   F
  0.4922985775593957  0.6548927258532724  0.7732685505384596   T   T   T
  0.1790639134723609  0.0140445967996910  0.7619598122210025   T   T   T
 
  0.00000000E+00  0.00000000E+00  0.00000000E+00
  0.00000000E+00  0.00000000E+00  0.00000000E+00
  0.00000000E+00  0.00000000E+00  0.00000000E+00
  0.00000000E+00  0.00000000E+00  0.00000000E+00
  0.00000000E+00  0.00000000E+00  0.00000000E+00
  0.00000000E+00  0.00000000E+00  0.00000000E+00
  0.00000000E+00  0.00000000E+00  0.00000000E+00
  0.00000000E+00  0.00000000E+00  0.00000000E+00
  0.00000000E+00  0.00000000E+00  0.00000000E+00
  0.00000000E+00  0.00000000E+00  0.00000000E+00
  0.00000000E+00  0.00000000E+00  0.00000000E+00
  0.00000000E+00  0.00000000E+00  0.00000000E+00
  0.00000000E+00  0.00000000E+00  0.00000000E+00
  0.00000000E+00  0.00000000E+00  0.00000000E+00
  0.00000000E+00  0.00000000E+00  0.00000000E+00
  0.00000000E+00  0.00000000E+00  0.00000000E+00
  0.00000000E+00  0.00000000E+00  0.00000000E+00
  0.00000000E+00  0.00000000E+00  0.00000000E+00
  0.00000000E+00  0.00000000E+00  0.00000000E+00
  0.00000000E+00  0.00000000E+00  0.00000000E+00
  0.00000000E+00  0.00000000E+00  0.00000000E+00
  0.00000000E+00  0.00000000E+00  0.00000000E+00
  0.00000000E+00  0.00000000E+00  0.00000000E+00
  0.00000000E+00  0.00000000E+00  0.00000000E+00
  0.00000000E+00  0.00000000E+00  0.00000000E+00
  0.00000000E+00  0.00000000E+00  0.00000000E+00
  0.00000000E+00  0.00000000E+00  0.00000000E+00
  0.00000000E+00  0.00000000E+00  0.00000000E+00
  0.00000000E+00  0.00000000E+00  0.00000000E+00
  0.00000000E+00  0.00000000E+00  0.00000000E+00
  0.00000000E+00  0.00000000E+00  0.00000000E+00
  0.00000000E+00  0.00000000E+00  0.00000000E+00
  0.00000000E+00  0.00000000E+00  0.00000000E+00
  0.00000000E+00  0.00000000E+00  0.00000000E+00
  0.00000000E+00  0.00000000E+00  0.00000000E+00
  0.00000000E+00  0.00000000E+00  0.00000000E+00
  0.00000000E+00  0.00000000E+00  0.00000000E+00
  0.00000000E+00  0.00000000E+00  0.00000000E+00
  0.00000000E+00  0.00000000E+00  0.00000000E+00
  0.00000000E+00  0.00000000E+00  0.00000000E+00
  0.00000000E+00  0.00000000E+00  0.00000000E+00
  0.00000000E+00  0.00000000E+00  0.00000000E+00
  0.00000000E+00  0.00000000E+00  0.00000000E+00
  0.00000000E+00  0.00000000E+00  0.00000000E+00
  0.00000000E+00  0.00000000E+00  0.00000000E+00
  0.00000000E+00  0.00000000E+00  0.00000000E+00
  0.00000000E+00  0.00000000E+00  0.00000000E+00
  0.00000000E+00  0.00000000E+00  0.00000000E+00
  0.00000000E+00  0.00000000E+00  0.00000000E+00
  0.00000000E+00  0.00000000E+00  0.00000000E+00
  0.00000000E+00  0.00000000E+00  0.00000000E+00
  0.00000000E+00  0.00000000E+00  0.00000000E+00
  0.00000000E+00  0.00000000E+00  0.00000000E+00
  0.00000000E+00  0.00000000E+00  0.00000000E+00
  0.00000000E+00  0.00000000E+00  0.00000000E+00
  0.00000000E+00  0.00000000E+00  0.00000000E+00
  0.00000000E+00  0.00000000E+00  0.00000000E+00
  0.00000000E+00  0.00000000E+00  0.00000000E+00
  0.00000000E+00  0.00000000E+00  0.00000000E+00
  0.00000000E+00  0.00000000E+00  0.00000000E+00
  0.00000000E+00  0.00000000E+00  0.00000000E+00
  0.00000000E+00  0.00000000E+00  0.00000000E+00
  0.00000000E+00  0.00000000E+00  0.00000000E+00
  0.00000000E+00  0.00000000E+00  0.00000000E+00
  0.00000000E+00  0.00000000E+00  0.00000000E+00
  0.00000000E+00  0.00000000E+00  0.00000000E+00
  0.00000000E+00  0.00000000E+00  0.00000000E+00
  0.00000000E+00  0.00000000E+00  0.00000000E+00
  0.00000000E+00  0.00000000E+00  0.00000000E+00
  0.00000000E+00  0.00000000E+00  0.00000000E+00
  0.00000000E+00  0.00000000E+00  0.00000000E+00
  0.00000000E+00  0.00000000E+00  0.00000000E+00
  0.00000000E+00  0.00000000E+00  0.00000000E+00
  0.00000000E+00  0.00000000E+00  0.00000000E+00
  0.00000000E+00  0.00000000E+00  0.00000000E+00
  0.00000000E+00  0.00000000E+00  0.00000000E+00
  0.00000000E+00  0.00000000E+00  0.00000000E+00
  0.00000000E+00  0.00000000E+00  0.00000000E+00
  0.00000000E+00  0.00000000E+00  0.00000000E+00
  0.00000000E+00  0.00000000E+00  0.00000000E+00
  0.00000000E+00  0.00000000E+00  0.00000000E+00
  0.00000000E+00  0.00000000E+00  0.00000000E+00
  0.00000000E+00  0.00000000E+00  0.00000000E+00
  0.00000000E+00  0.00000000E+00  0.00000000E+00
  0.00000000E+00  0.00000000E+00  0.00000000E+00
  0.00000000E+00  0.00000000E+00  0.00000000E+00
  0.00000000E+00  0.00000000E+00  0.00000000E+00
  0.00000000E+00  0.00000000E+00  0.00000000E+00
  0.00000000E+00  0.00000000E+00  0.00000000E+00
  0.00000000E+00  0.00000000E+00  0.00000000E+00
  0.00000000E+00  0.00000000E+00  0.00000000E+00
  0.00000000E+00  0.00000000E+00  0.00000000E+00
  0.00000000E+00  0.00000000E+00  0.00000000E+00
  0.00000000E+00  0.00000000E+00  0.00000000E+00
  0.00000000E+00  0.00000000E+00  0.00000000E+00
  0.00000000E+00  0.00000000E+00  0.00000000E+00
  0.00000000E+00  0.00000000E+00  0.00000000E+00
  0.00000000E+00  0.00000000E+00  0.00000000E+00
  0.00000000E+00  0.00000000E+00  0.00000000E+00
  0.00000000E+00  0.00000000E+00  0.00000000E+00
  0.00000000E+00  0.00000000E+00  0.00000000E+00
  0.00000000E+00  0.00000000E+00  0.00000000E+00
  0.00000000E+00  0.00000000E+00  0.00000000E+00
  0.00000000E+00  0.00000000E+00  0.00000000E+00
  0.00000000E+00  0.00000000E+00  0.00000000E+00
  0.00000000E+00  0.00000000E+00  0.00000000E+00
  0.00000000E+00  0.00000000E+00  0.00000000E+00
  0.00000000E+00  0.00000000E+00  0.00000000E+00
  0.00000000E+00  0.00000000E+00  0.00000000E+00
  0.00000000E+00  0.00000000E+00  0.00000000E+00
  0.00000000E+00  0.00000000E+00  0.00000000E+00
  0.00000000E+00  0.00000000E+00  0.00000000E+00
  0.00000000E+00  0.00000000E+00  0.00000000E+00
  0.00000000E+00  0.00000000E+00  0.00000000E+00
  0.00000000E+00  0.00000000E+00  0.00000000E+00
  0.00000000E+00  0.00000000E+00  0.00000000E+00
  0.00000000E+00  0.00000000E+00  0.00000000E+00
  0.00000000E+00  0.00000000E+00  0.00000000E+00
  0.00000000E+00  0.00000000E+00  0.00000000E+00
  0.00000000E+00  0.00000000E+00  0.00000000E+00
  0.00000000E+00  0.00000000E+00  0.00000000E+00
  0.00000000E+00  0.00000000E+00  0.00000000E+00
  0.00000000E+00  0.00000000E+00  0.00000000E+00
  0.00000000E+00  0.00000000E+00  0.00000000E+00
  0.00000000E+00  0.00000000E+00  0.00000000E+00
  0.00000000E+00  0.00000000E+00  0.00000000E+00
  0.00000000E+00  0.00000000E+00  0.00000000E+00
  0.00000000E+00  0.00000000E+00  0.00000000E+00
  0.00000000E+00  0.00000000E+00  0.00000000E+00
  0.00000000E+00  0.00000000E+00  0.00000000E+00
  0.00000000E+00  0.00000000E+00  0.00000000E+00
  0.00000000E+00  0.00000000E+00  0.00000000E+00
