K2 V8 O20                               
    1.000000000000000     
    11.7178338688480288   -0.0000000000000000   -0.4062017635620903
    -0.0000000000000002    3.7000648571091914    0.0000000000000002
     0.0358266433207778    0.0000000000000000    9.3906677439925730
   K    V    O 
     2     8    20
Direct
  0.4127962935612216  0.0000000000000000  0.5263813360494577
  0.0872037064387784  0.5000000000000000  0.4736186639505421
  0.0626604104485727  0.0000000000000000  0.8506136694296356
  0.9369753671519320  0.0000000000000000  0.1553170816813867
  0.5630246328480679  0.5000000000000000  0.8446829183186134
  0.4373395895514273  0.5000000000000000  0.1493863305703647
  0.7671916897310607  0.0000000000000000  0.8368063841400777
  0.2369771636065934  0.0000000000000000  0.1518712803761698
  0.2630228363934067  0.5000000000000000  0.8481287196238299
  0.7328083102689393  0.5000000000000000  0.1631936158599225
  0.6033523354624447  0.0000000000000000  0.8683697222335345
  0.4067956292944671  0.0000000000000000  0.1257879522923175
  0.0932043707055328  0.5000000000000000  0.8742120477076822
  0.8966476645375553  0.5000000000000000  0.1316302777664659
  0.9147201780661586  0.0000000000000000  0.9068167298597160
  0.0765485390339056  0.0000000000000000  0.0939917730396816
  0.4234514609660943  0.5000000000000000  0.9060082269603182
  0.5852798219338414  0.5000000000000000  0.0931832701402842
  0.2298988603382514  0.0000000000000000  0.8968033519612734
  0.7617242810124865  0.0000000000000000  0.1210706465659525
  0.7382757189875135  0.5000000000000000  0.8789293534340478
  0.2701011396617486  0.5000000000000000  0.1031966480387268
  0.0487140019044015  0.0000000000000000  0.6783663526220221
  0.9584156497002428  0.0000000000000000  0.3264709953153875
  0.5415843502997572  0.5000000000000000  0.6735290046846125
  0.4512859980955988  0.5000000000000000  0.3216336473779775
  0.7789759963509252  0.0000000000000000  0.6693499706314416
  0.2228560233747802  0.0000000000000000  0.3258374336098928
  0.2771439766252198  0.5000000000000000  0.6741625663901076
  0.7210240036490748  0.5000000000000000  0.3306500293685580
 
  0.00000000E+00  0.00000000E+00  0.00000000E+00
  0.00000000E+00  0.00000000E+00  0.00000000E+00
  0.00000000E+00  0.00000000E+00  0.00000000E+00
  0.00000000E+00  0.00000000E+00  0.00000000E+00
  0.00000000E+00  0.00000000E+00  0.00000000E+00
  0.00000000E+00  0.00000000E+00  0.00000000E+00
  0.00000000E+00  0.00000000E+00  0.00000000E+00
  0.00000000E+00  0.00000000E+00  0.00000000E+00
  0.00000000E+00  0.00000000E+00  0.00000000E+00
  0.00000000E+00  0.00000000E+00  0.00000000E+00
  0.00000000E+00  0.00000000E+00  0.00000000E+00
  0.00000000E+00  0.00000000E+00  0.00000000E+00
  0.00000000E+00  0.00000000E+00  0.00000000E+00
  0.00000000E+00  0.00000000E+00  0.00000000E+00
  0.00000000E+00  0.00000000E+00  0.00000000E+00
  0.00000000E+00  0.00000000E+00  0.00000000E+00
  0.00000000E+00  0.00000000E+00  0.00000000E+00
  0.00000000E+00  0.00000000E+00  0.00000000E+00
  0.00000000E+00  0.00000000E+00  0.00000000E+00
  0.00000000E+00  0.00000000E+00  0.00000000E+00
  0.00000000E+00  0.00000000E+00  0.00000000E+00
  0.00000000E+00  0.00000000E+00  0.00000000E+00
  0.00000000E+00  0.00000000E+00  0.00000000E+00
  0.00000000E+00  0.00000000E+00  0.00000000E+00
  0.00000000E+00  0.00000000E+00  0.00000000E+00
  0.00000000E+00  0.00000000E+00  0.00000000E+00
  0.00000000E+00  0.00000000E+00  0.00000000E+00
  0.00000000E+00  0.00000000E+00  0.00000000E+00
  0.00000000E+00  0.00000000E+00  0.00000000E+00
  0.00000000E+00  0.00000000E+00  0.00000000E+00
