Na2 Fe48 S2 O48                         
   1.00000000000000     
     8.7025565439833592    0.0000000000000000    0.0000000000000005
    -0.0000000000000005    8.7025565439833592    0.0000000000000005
     0.0000000000000000    0.0000000000000000   26.1076696319500776
   Na   Fe   S    O 
     2    48     2    48
Selective dynamics
Direct
  0.3417435800422095  0.1383935224821873  0.8280182708461216   T   T   T
  0.0120607942622402  0.7333716998392669  0.8026484368487765   T   T   T
  0.0000000000000000  0.0000000000000000  0.3750000000000000   F   F   F
  0.0000000000000000  0.5000000000000000  0.3750000000000000   F   F   F
  0.5000000000000000  0.0000000000000000  0.3750000000000000   F   F   F
  0.5000000000000000  0.5000000000000000  0.3750000000000000   F   F   F
  0.2500000000000000  0.2500000000000000  0.3750000000000000   F   F   F
  0.2500000000000000  0.7500000000000000  0.3750000000000000   F   F   F
  0.7500000000000000  0.2500000000000000  0.3750000000000000   F   F   F
  0.7500000000000000  0.7500000000000000  0.3750000000000000   F   F   F
  0.0000000000000000  0.2500000000000000  0.2916666666666643   F   F   F
  0.0000000000000000  0.7500000000000000  0.2916666666666643   F   F   F
  0.5000000000000000  0.2500000000000000  0.2916666666666643   F   F   F
  0.5000000000000000  0.7500000000000000  0.2916666666666643   F   F   F
  0.2500000000000000  0.0000000000000000  0.2916666666666643   F   F   F
  0.2500000000000000  0.5000000000000000  0.2916666666666643   F   F   F
  0.7500000000000000  0.0000000000000000  0.2916666666666643   F   F   F
  0.7500000000000000  0.5000000000000000  0.2916666666666643   F   F   F
  0.0000000000000000  0.0000000000000000  0.5416666666666643   F   F   F
  0.0000000000000000  0.5000000000000000  0.5416666666666643   F   F   F
  0.5000000000000000  0.0000000000000000  0.5416666666666643   F   F   F
  0.5000000000000000  0.5000000000000000  0.5416666666666643   F   F   F
  0.2500000000000000  0.2500000000000000  0.5416666666666643   F   F   F
  0.2500000000000000  0.7500000000000000  0.5416666666666643   F   F   F
  0.7500000000000000  0.2500000000000000  0.5416666666666643   F   F   F
  0.7500000000000000  0.7500000000000000  0.5416666666666643   F   F   F
  0.0000000000000000  0.2500000000000000  0.4583333333333357   F   F   F
  0.0000000000000000  0.7500000000000000  0.4583333333333357   F   F   F
  0.5000000000000000  0.2500000000000000  0.4583333333333357   F   F   F
  0.5000000000000000  0.7500000000000000  0.4583333333333357   F   F   F
  0.2500000000000000  0.0000000000000000  0.4583333333333357   F   F   F
  0.2500000000000000  0.5000000000000000  0.4583333333333357   F   F   F
  0.7500000000000000  0.0000000000000000  0.4583333333333357   F   F   F
  0.7500000000000000  0.5000000000000000  0.4583333333333357   F   F   F
  0.0043366847836377  0.0465969133248962  0.7354624726829777   T   T   T
  0.0742069034608765  0.4930064841251490  0.7038097002761345   T   T   T
  0.5499998196061854  0.0700976014650020  0.7093146770772795   T   T   T
  0.4803567509566578  0.4082940432384001  0.7164598567378709   T   T   T
  0.2675696609863135  0.2063627243345613  0.6974224126794939   T   T   T
  0.3194037022151123  0.7742863297109389  0.7070011062427729   T   T   T
  0.7697326339548584  0.2622560416173834  0.6987185998787799   T   T   T
  0.7459608166806918  0.7123251353569311  0.7033519765559744   T   T   T
 -0.0127816120037160  0.2404972188626180  0.6260914698632868   T   T   T
 -0.0093597784077646  0.7478547712599900  0.6384880311389629   T   T   T
  0.4944799358087382  0.2559924080822268  0.6333637960788155   T   T   T
  0.4969181057946720  0.7675940435179670  0.6339213927062738   T   T   T
  0.2610954917151335 -0.0055346937359817  0.6319502045104726   T   T   T
  0.2587176438373296  0.5044561650477223  0.6345105183077822   T   T   T
  0.7775071300154838  0.0243020792628954  0.6265247707392113   T   T   T
  0.7395120875383234  0.5201356604833987  0.6316156264334363   T   T   T
  0.1569427256444509 -0.0777279730124721  0.8653723408378121   T   T   T
  0.0115000894620850  0.0729529331187382  0.8227239392530551   T   T   T
  0.2500000000000000  0.0000000000000000  0.3750000000000000   F   F   F
  0.2500000000000000  0.5000000000000000  0.3750000000000000   F   F   F
  0.7500000000000000  0.0000000000000000  0.3750000000000000   F   F   F
  0.7500000000000000  0.5000000000000000  0.3750000000000000   F   F   F
  0.0000000000000000  0.2500000000000000  0.3750000000000000   F   F   F
  0.0000000000000000  0.7500000000000000  0.3750000000000000   F   F   F
  0.5000000000000000  0.2500000000000000  0.3750000000000000   F   F   F
  0.5000000000000000  0.7500000000000000  0.3750000000000000   F   F   F
  0.2500000000000000  0.2500000000000000  0.2916666666666643   F   F   F
  0.2500000000000000  0.7500000000000000  0.2916666666666643   F   F   F
  0.7500000000000000  0.2500000000000000  0.2916666666666643   F   F   F
  0.7500000000000000  0.7500000000000000  0.2916666666666643   F   F   F
  0.0000000000000000  0.0000000000000000  0.2916666666666643   F   F   F
  0.0000000000000000  0.5000000000000000  0.2916666666666643   F   F   F
  0.5000000000000000  0.0000000000000000  0.2916666666666643   F   F   F
  0.5000000000000000  0.5000000000000000  0.2916666666666643   F   F   F
  0.2500000000000000  0.0000000000000000  0.5416666666666643   F   F   F
  0.2500000000000000  0.5000000000000000  0.5416666666666643   F   F   F
  0.7500000000000000  0.0000000000000000  0.5416666666666643   F   F   F
  0.7500000000000000  0.5000000000000000  0.5416666666666643   F   F   F
  0.0000000000000000  0.2500000000000000  0.5416666666666643   F   F   F
  0.0000000000000000  0.7500000000000000  0.5416666666666643   F   F   F
  0.5000000000000000  0.2500000000000000  0.5416666666666643   F   F   F
  0.5000000000000000  0.7500000000000000  0.5416666666666643   F   F   F
  0.2500000000000000  0.2500000000000000  0.4583333333333357   F   F   F
  0.2500000000000000  0.7500000000000000  0.4583333333333357   F   F   F
  0.7500000000000000  0.2500000000000000  0.4583333333333357   F   F   F
  0.7500000000000000  0.7500000000000000  0.4583333333333357   F   F   F
  0.0000000000000000  0.0000000000000000  0.4583333333333357   F   F   F
  0.0000000000000000  0.5000000000000000  0.4583333333333357   F   F   F
  0.5000000000000000  0.0000000000000000  0.4583333333333357   F   F   F
  0.5000000000000000  0.5000000000000000  0.4583333333333357   F   F   F
  0.2086505957162597 -0.0285840631329637  0.7119170967270343   T   T   T
  0.2966144816438800  0.5525242410392662  0.7211949618228707   T   T   T
  0.7861314161694751  0.0331414085525234  0.7088310994763657   T   T   T
  0.7012161352915238  0.4751053501901407  0.7128818564267951   T   T   T
  0.0272866495485840  0.2683023268914106  0.7087560379637075   T   T   T
 -0.0311042798649815  0.6936557189088204  0.7178739378938040   T   T   T
  0.4303561716541789  0.2129504990639650  0.7523593893097501   T   T   T
  0.5425012214792995  0.8158453217358899  0.7122391697309107   T   T   T
  0.2466302117192073  0.2566029305329230  0.6213374651385306   T   T   T
  0.2434532874042940  0.7444717839581071  0.6240228114084081   T   T   T
  0.7383701853044398  0.2715575516603129  0.6201077107878142   T   T   T
  0.7486988502577803  0.7664670384665542  0.6225648925702324   T   T   T
  0.0139532626479091 -0.0097152234931059  0.6216920039205101   T   T   T
 -0.0072453298563020  0.5014358964374148  0.6250533853284046   T   T   T
  0.5089211037623270  0.0120125942804521  0.6228598794220732   T   T   T
  0.4979749327897270  0.5117370136677721  0.6213254491626917   T   T   T
 
  0.00000000E+00  0.00000000E+00  0.00000000E+00
  0.00000000E+00  0.00000000E+00  0.00000000E+00
  0.00000000E+00  0.00000000E+00  0.00000000E+00
  0.00000000E+00  0.00000000E+00  0.00000000E+00
  0.00000000E+00  0.00000000E+00  0.00000000E+00
  0.00000000E+00  0.00000000E+00  0.00000000E+00
  0.00000000E+00  0.00000000E+00  0.00000000E+00
  0.00000000E+00  0.00000000E+00  0.00000000E+00
  0.00000000E+00  0.00000000E+00  0.00000000E+00
  0.00000000E+00  0.00000000E+00  0.00000000E+00
  0.00000000E+00  0.00000000E+00  0.00000000E+00
  0.00000000E+00  0.00000000E+00  0.00000000E+00
  0.00000000E+00  0.00000000E+00  0.00000000E+00
  0.00000000E+00  0.00000000E+00  0.00000000E+00
  0.00000000E+00  0.00000000E+00  0.00000000E+00
  0.00000000E+00  0.00000000E+00  0.00000000E+00
  0.00000000E+00  0.00000000E+00  0.00000000E+00
  0.00000000E+00  0.00000000E+00  0.00000000E+00
  0.00000000E+00  0.00000000E+00  0.00000000E+00
  0.00000000E+00  0.00000000E+00  0.00000000E+00
  0.00000000E+00  0.00000000E+00  0.00000000E+00
  0.00000000E+00  0.00000000E+00  0.00000000E+00
  0.00000000E+00  0.00000000E+00  0.00000000E+00
  0.00000000E+00  0.00000000E+00  0.00000000E+00
  0.00000000E+00  0.00000000E+00  0.00000000E+00
  0.00000000E+00  0.00000000E+00  0.00000000E+00
  0.00000000E+00  0.00000000E+00  0.00000000E+00
  0.00000000E+00  0.00000000E+00  0.00000000E+00
  0.00000000E+00  0.00000000E+00  0.00000000E+00
  0.00000000E+00  0.00000000E+00  0.00000000E+00
  0.00000000E+00  0.00000000E+00  0.00000000E+00
  0.00000000E+00  0.00000000E+00  0.00000000E+00
  0.00000000E+00  0.00000000E+00  0.00000000E+00
  0.00000000E+00  0.00000000E+00  0.00000000E+00
  0.00000000E+00  0.00000000E+00  0.00000000E+00
  0.00000000E+00  0.00000000E+00  0.00000000E+00
  0.00000000E+00  0.00000000E+00  0.00000000E+00
  0.00000000E+00  0.00000000E+00  0.00000000E+00
  0.00000000E+00  0.00000000E+00  0.00000000E+00
  0.00000000E+00  0.00000000E+00  0.00000000E+00
  0.00000000E+00  0.00000000E+00  0.00000000E+00
  0.00000000E+00  0.00000000E+00  0.00000000E+00
  0.00000000E+00  0.00000000E+00  0.00000000E+00
  0.00000000E+00  0.00000000E+00  0.00000000E+00
  0.00000000E+00  0.00000000E+00  0.00000000E+00
  0.00000000E+00  0.00000000E+00  0.00000000E+00
  0.00000000E+00  0.00000000E+00  0.00000000E+00
  0.00000000E+00  0.00000000E+00  0.00000000E+00
  0.00000000E+00  0.00000000E+00  0.00000000E+00
  0.00000000E+00  0.00000000E+00  0.00000000E+00
  0.00000000E+00  0.00000000E+00  0.00000000E+00
  0.00000000E+00  0.00000000E+00  0.00000000E+00
  0.00000000E+00  0.00000000E+00  0.00000000E+00
  0.00000000E+00  0.00000000E+00  0.00000000E+00
  0.00000000E+00  0.00000000E+00  0.00000000E+00
  0.00000000E+00  0.00000000E+00  0.00000000E+00
  0.00000000E+00  0.00000000E+00  0.00000000E+00
  0.00000000E+00  0.00000000E+00  0.00000000E+00
  0.00000000E+00  0.00000000E+00  0.00000000E+00
  0.00000000E+00  0.00000000E+00  0.00000000E+00
  0.00000000E+00  0.00000000E+00  0.00000000E+00
  0.00000000E+00  0.00000000E+00  0.00000000E+00
  0.00000000E+00  0.00000000E+00  0.00000000E+00
  0.00000000E+00  0.00000000E+00  0.00000000E+00
  0.00000000E+00  0.00000000E+00  0.00000000E+00
  0.00000000E+00  0.00000000E+00  0.00000000E+00
  0.00000000E+00  0.00000000E+00  0.00000000E+00
  0.00000000E+00  0.00000000E+00  0.00000000E+00
  0.00000000E+00  0.00000000E+00  0.00000000E+00
  0.00000000E+00  0.00000000E+00  0.00000000E+00
  0.00000000E+00  0.00000000E+00  0.00000000E+00
  0.00000000E+00  0.00000000E+00  0.00000000E+00
  0.00000000E+00  0.00000000E+00  0.00000000E+00
  0.00000000E+00  0.00000000E+00  0.00000000E+00
  0.00000000E+00  0.00000000E+00  0.00000000E+00
  0.00000000E+00  0.00000000E+00  0.00000000E+00
  0.00000000E+00  0.00000000E+00  0.00000000E+00
  0.00000000E+00  0.00000000E+00  0.00000000E+00
  0.00000000E+00  0.00000000E+00  0.00000000E+00
  0.00000000E+00  0.00000000E+00  0.00000000E+00
  0.00000000E+00  0.00000000E+00  0.00000000E+00
  0.00000000E+00  0.00000000E+00  0.00000000E+00
  0.00000000E+00  0.00000000E+00  0.00000000E+00
  0.00000000E+00  0.00000000E+00  0.00000000E+00
  0.00000000E+00  0.00000000E+00  0.00000000E+00
  0.00000000E+00  0.00000000E+00  0.00000000E+00
  0.00000000E+00  0.00000000E+00  0.00000000E+00
  0.00000000E+00  0.00000000E+00  0.00000000E+00
  0.00000000E+00  0.00000000E+00  0.00000000E+00
  0.00000000E+00  0.00000000E+00  0.00000000E+00
  0.00000000E+00  0.00000000E+00  0.00000000E+00
  0.00000000E+00  0.00000000E+00  0.00000000E+00
  0.00000000E+00  0.00000000E+00  0.00000000E+00
  0.00000000E+00  0.00000000E+00  0.00000000E+00
  0.00000000E+00  0.00000000E+00  0.00000000E+00
  0.00000000E+00  0.00000000E+00  0.00000000E+00
  0.00000000E+00  0.00000000E+00  0.00000000E+00
  0.00000000E+00  0.00000000E+00  0.00000000E+00
  0.00000000E+00  0.00000000E+00  0.00000000E+00
  0.00000000E+00  0.00000000E+00  0.00000000E+00
