K6 V24 Zn1 O59                          
    1.000000000000000     
    11.7552576231945523    0.0000000000000000   -0.0490030545331429
    -0.0000000000000007   11.1874335299999998    0.0000000000000007
     0.0000000000000000    0.0000000000000000    9.3396992399999998
   K    V    Zn   O 
     6    24     1    59
Direct
  0.4107955602221574  0.0000000000000000  0.5275839524342220
  0.4166989966685752  0.3343005131880623  0.5247544065844549
  0.4166989966685752  0.6656994868119379  0.5247544065844549
  0.0929350519003991  0.1754493828469590  0.4731218078253668
  0.0925381034550381  0.5000000000000000  0.4749868492487611
  0.0929350519003991  0.8245506171530409  0.4731218078253668
  0.0728705274323090  0.0000000000000000  0.8291271780452487
  0.0640433040729797  0.3327344907305570  0.8527128008634890
  0.0640433040729797  0.6672655092694433  0.8527128008634890
  0.9240511726959578  0.0000000000000000  0.0945363165233456
  0.9335981232443711  0.3360369879991370  0.1667288420017027
  0.9335981232443711  0.6639630120008632  0.1667288420017027
  0.5664293658352519  0.1693547311330022  0.8369094988311521
  0.5672055694878446  0.5000000000000000  0.8380117137687163
  0.5664293658352519  0.8306452688669980  0.8369094988311521
  0.4367137955375791  0.1665094800230448  0.1485642500553584
  0.4351578239030176  0.5000000000000000  0.1494878665956987
  0.4367137955375791  0.8334905199769553  0.1485642500553584
  0.7626733382979611  0.0000000000000000  0.8149828916731303
  0.7726826183807867  0.3336435257160817  0.8281379177005704
  0.7726826183807867  0.6663564742839182  0.8281379177005704
  0.2357439531061264  0.0000000000000000  0.1534781777496895
  0.2357543930428835  0.3326570169004240  0.1528728670051086
  0.2357543930428835  0.6673429830995758  0.1528728670051086
  0.2651380477684432  0.1681844819827601  0.8467533943662566
  0.2653826764557626  0.5000000000000000  0.8479707131052571
  0.2651380477684432  0.8318155180172399  0.8467533943662566
  0.7291708151921437  0.1684670031128192  0.1823733547299312
  0.7259022596721205  0.5000000000000000  0.1774951310133822
  0.7291708151921437  0.8315329968871809  0.1823733547299312
  0.7501645408005179  0.0000000000000000  0.4420721099136817
  0.6046229959186198  0.0000000000000000  0.8572878259231284
  0.6068878433902196  0.3341454651770191  0.8622714534178768
  0.6068878433902196  0.6658545348229810  0.8622714534178768
  0.4029285347492302  0.0000000000000000  0.1239842237655120
  0.4053569099869344  0.3340856021933283  0.1241670783941417
  0.4053569099869344  0.6659143978066646  0.1241670783941417
  0.0940509293395461  0.1699240106243251  0.8709776234588716
  0.0947473800158297  0.5000000000000000  0.8806379222988955
  0.0940509293395461  0.8300759893756751  0.8709776234588716
  0.8968879412321644  0.1606397714134725  0.1527293889516522
  0.8937883413264817  0.5000000000000000  0.1399089868487021
  0.8968879412321644  0.8393602285865274  0.1527293889516522
  0.9161894977403990  0.0000000000000000  0.9071550587720183
  0.9137382446579422  0.3315969174586845  0.9114800970330605
  0.9137382446579422  0.6684030825413156  0.9114800970330605
  0.0684117398497201  0.0000000000000000  0.1130614932094038
  0.0722168061617854  0.3328863819277995  0.1011815329133132
  0.0722168061617854  0.6671136180722005  0.1011815329133132
  0.4263336488579817  0.1674274093977666  0.9007538860583358
  0.4270254328627117  0.5000000000000000  0.9021856669067616
  0.4263336488579817  0.8325725906022335  0.9007538860583358
  0.5828575605514362  0.1663894962101332  0.0920879087451428
  0.5854978136691746  0.5000000000000000  0.0937655873915608
  0.5828575605514362  0.8336105037898668  0.0920879087451428
  0.2319223223390004  0.0000000000000000  0.8912863308105676
  0.2316124660300164  0.3342433671624445  0.8982483345693494
  0.2316124660300164  0.6657566328375556  0.8982483345693494
  0.7599416016702890  0.0000000000000000  0.1287684565732940
  0.7589960561436430  0.3354602615250359  0.1369396445815538
  0.7589960561436430  0.6645397384749638  0.1369396445815538
  0.7407044682060325  0.1684487536294715  0.8690661259688718
  0.7418644811582529  0.5000000000000000  0.8699757547630091
  0.7407044682060325  0.8315512463705288  0.8690661259688718
  0.2674551263337325  0.1659381263326168  0.1020936768867341
  0.2682626287839029  0.5000000000000000  0.1051333038385394
  0.2674551263337325  0.8340618736673832  0.1020936768867341
  0.0540770411780113  0.0000000000000000  0.6545265071119835
  0.0513979873246771  0.3380378228446675  0.6795282739026646
  0.0513979873246771  0.6619621771553326  0.6795282739026646
  0.9522077642957324  0.3373233864015124  0.3394150292953142
  0.9522077642957324  0.6626766135984876  0.3394150292953142
  0.5481833233480854  0.1681699251215564  0.6631152728040833
  0.5492510731017921  0.5000000000000000  0.6657985978793459
  0.5481833233480854  0.8318300748784435  0.6631152728040833
  0.4455664677237647  0.1657643569148120  0.3235031254105468
  0.4465608298172972  0.5000000000000000  0.3230637109142946
  0.4455664677237647  0.8342356430851882  0.3235031254105468
  0.7890616528282490  0.0000000000000000  0.6364073167292185
  0.7930478915456658  0.3340464979225284  0.6605108826482814
  0.7930478915456658  0.6659535020774716  0.6605108826482814
  0.2183752002141373  0.0000000000000000  0.3293790929589239
  0.2217683348535968  0.3328981426967583  0.3292747899569311
  0.2217683348535968  0.6671018573032419  0.3292747899569311
  0.2814422802991701  0.1704394136065679  0.6707880012627718
  0.2807666027953837  0.5000000000000000  0.6719421810718915
  0.2814422802991701  0.8295605863934321  0.6707880012627718
  0.7109713006213884  0.1495041383987105  0.3608760953705790
  0.7061078693588897  0.5000000000000000  0.3456533089748641
  0.7109713006213884  0.8504958616012894  0.3608760953705790
 
  0.00000000E+00  0.00000000E+00  0.00000000E+00
  0.00000000E+00  0.00000000E+00  0.00000000E+00
  0.00000000E+00  0.00000000E+00  0.00000000E+00
  0.00000000E+00  0.00000000E+00  0.00000000E+00
  0.00000000E+00  0.00000000E+00  0.00000000E+00
  0.00000000E+00  0.00000000E+00  0.00000000E+00
  0.00000000E+00  0.00000000E+00  0.00000000E+00
  0.00000000E+00  0.00000000E+00  0.00000000E+00
  0.00000000E+00  0.00000000E+00  0.00000000E+00
  0.00000000E+00  0.00000000E+00  0.00000000E+00
  0.00000000E+00  0.00000000E+00  0.00000000E+00
  0.00000000E+00  0.00000000E+00  0.00000000E+00
  0.00000000E+00  0.00000000E+00  0.00000000E+00
  0.00000000E+00  0.00000000E+00  0.00000000E+00
  0.00000000E+00  0.00000000E+00  0.00000000E+00
  0.00000000E+00  0.00000000E+00  0.00000000E+00
  0.00000000E+00  0.00000000E+00  0.00000000E+00
  0.00000000E+00  0.00000000E+00  0.00000000E+00
  0.00000000E+00  0.00000000E+00  0.00000000E+00
  0.00000000E+00  0.00000000E+00  0.00000000E+00
  0.00000000E+00  0.00000000E+00  0.00000000E+00
  0.00000000E+00  0.00000000E+00  0.00000000E+00
  0.00000000E+00  0.00000000E+00  0.00000000E+00
  0.00000000E+00  0.00000000E+00  0.00000000E+00
  0.00000000E+00  0.00000000E+00  0.00000000E+00
  0.00000000E+00  0.00000000E+00  0.00000000E+00
  0.00000000E+00  0.00000000E+00  0.00000000E+00
  0.00000000E+00  0.00000000E+00  0.00000000E+00
  0.00000000E+00  0.00000000E+00  0.00000000E+00
  0.00000000E+00  0.00000000E+00  0.00000000E+00
  0.00000000E+00  0.00000000E+00  0.00000000E+00
  0.00000000E+00  0.00000000E+00  0.00000000E+00
  0.00000000E+00  0.00000000E+00  0.00000000E+00
  0.00000000E+00  0.00000000E+00  0.00000000E+00
  0.00000000E+00  0.00000000E+00  0.00000000E+00
  0.00000000E+00  0.00000000E+00  0.00000000E+00
  0.00000000E+00  0.00000000E+00  0.00000000E+00
  0.00000000E+00  0.00000000E+00  0.00000000E+00
  0.00000000E+00  0.00000000E+00  0.00000000E+00
  0.00000000E+00  0.00000000E+00  0.00000000E+00
  0.00000000E+00  0.00000000E+00  0.00000000E+00
  0.00000000E+00  0.00000000E+00  0.00000000E+00
  0.00000000E+00  0.00000000E+00  0.00000000E+00
  0.00000000E+00  0.00000000E+00  0.00000000E+00
  0.00000000E+00  0.00000000E+00  0.00000000E+00
  0.00000000E+00  0.00000000E+00  0.00000000E+00
  0.00000000E+00  0.00000000E+00  0.00000000E+00
  0.00000000E+00  0.00000000E+00  0.00000000E+00
  0.00000000E+00  0.00000000E+00  0.00000000E+00
  0.00000000E+00  0.00000000E+00  0.00000000E+00
  0.00000000E+00  0.00000000E+00  0.00000000E+00
  0.00000000E+00  0.00000000E+00  0.00000000E+00
  0.00000000E+00  0.00000000E+00  0.00000000E+00
  0.00000000E+00  0.00000000E+00  0.00000000E+00
  0.00000000E+00  0.00000000E+00  0.00000000E+00
  0.00000000E+00  0.00000000E+00  0.00000000E+00
  0.00000000E+00  0.00000000E+00  0.00000000E+00
  0.00000000E+00  0.00000000E+00  0.00000000E+00
  0.00000000E+00  0.00000000E+00  0.00000000E+00
  0.00000000E+00  0.00000000E+00  0.00000000E+00
  0.00000000E+00  0.00000000E+00  0.00000000E+00
  0.00000000E+00  0.00000000E+00  0.00000000E+00
  0.00000000E+00  0.00000000E+00  0.00000000E+00
  0.00000000E+00  0.00000000E+00  0.00000000E+00
  0.00000000E+00  0.00000000E+00  0.00000000E+00
  0.00000000E+00  0.00000000E+00  0.00000000E+00
  0.00000000E+00  0.00000000E+00  0.00000000E+00
  0.00000000E+00  0.00000000E+00  0.00000000E+00
  0.00000000E+00  0.00000000E+00  0.00000000E+00
  0.00000000E+00  0.00000000E+00  0.00000000E+00
  0.00000000E+00  0.00000000E+00  0.00000000E+00
  0.00000000E+00  0.00000000E+00  0.00000000E+00
  0.00000000E+00  0.00000000E+00  0.00000000E+00
  0.00000000E+00  0.00000000E+00  0.00000000E+00
  0.00000000E+00  0.00000000E+00  0.00000000E+00
  0.00000000E+00  0.00000000E+00  0.00000000E+00
  0.00000000E+00  0.00000000E+00  0.00000000E+00
  0.00000000E+00  0.00000000E+00  0.00000000E+00
  0.00000000E+00  0.00000000E+00  0.00000000E+00
  0.00000000E+00  0.00000000E+00  0.00000000E+00
  0.00000000E+00  0.00000000E+00  0.00000000E+00
  0.00000000E+00  0.00000000E+00  0.00000000E+00
  0.00000000E+00  0.00000000E+00  0.00000000E+00
  0.00000000E+00  0.00000000E+00  0.00000000E+00
  0.00000000E+00  0.00000000E+00  0.00000000E+00
  0.00000000E+00  0.00000000E+00  0.00000000E+00
  0.00000000E+00  0.00000000E+00  0.00000000E+00
  0.00000000E+00  0.00000000E+00  0.00000000E+00
  0.00000000E+00  0.00000000E+00  0.00000000E+00
  0.00000000E+00  0.00000000E+00  0.00000000E+00
